     Program PWSCF v.5.4.0 starts on 26Apr2017 at 14:14:41

     Current dimensions of program PWSCF are:
     Max number of different atomic species (ntypx) = 10
     Max number of k-points (npk) =  40000
     Max angular momentum in pseudopotentials (lmaxx) =  3

     Subspace diagonalization in iterative solution of the eigenvalue problem:
     a serial algorithm will be used

     bravais-lattice index     =            4
     lattice parameter (alat)  =      12.2747  a.u.
     unit-cell volume          =    4931.5212 (a.u.)^3
     number of atoms/cell      =           12
     number of atomic types    =            3
     number of electrons       =       105.00
     number of Kohn-Sham states=           64
     kinetic-energy cutoff     =      70.0000  Ry
     charge density cutoff     =     700.0000  Ry
     convergence threshold     =      1.0E-08
     mixing beta               =       0.7000
     number of iterations used =            8  plain     mixing
     Exchange-correlation      =  SLA  PZ   NOGX NOGC ( 1  1  0  0 0 0)
     nstep                     =           50

     celldm(1)=  12.274692  celldm(2)=   0.000000  celldm(3)=   3.079062
     celldm(4)=   0.000000  celldm(5)=   0.000000  celldm(6)=   0.000000

     crystal axes: (cart. coord. in units of alat)
               a(1) = (   1.000000   0.000000   0.000000 )
               a(2) = (  -0.500000   0.866025   0.000000 )
               a(3) = (   0.000000   0.000000   3.079062 )

     reciprocal axes: (cart. coord. in units 2 pi/alat)
               b(1) = (  1.000000  0.577350  0.000000 )
               b(2) = (  0.000000  1.154701  0.000000 )
               b(3) = (  0.000000  0.000000  0.324774 )

     PseudoPot. # 1 for Mo read from file:
     /afs/crc.nd.edu/user/j/jencomen/espresso/pseudo/Mo_LDA.UPF
     MD5 check sum: f5ddb34c5c8cdf9395e9f47ee8c17b30
     Pseudo is Ultrasoft + core correction, Zval = 14.0
     Generated by new atomic code, or converted to UPF format
     Using radial grid of  889 points,  6 beta functions with:
                l(1) =   0
                l(2) =   0
                l(3) =   1
                l(4) =   1
                l(5) =   2
                l(6) =   2
     Q(r) pseudized with  6 coefficients,  rinner =    1.000   1.000   1.000
                                                       1.000   1.000

     PseudoPot. # 2 for Se read from file:
     /afs/crc.nd.edu/user/j/jencomen/espresso/pseudo/Se_LDA.UPF
     MD5 check sum: 29da00cbf48820a058e3666752a4b224
     Pseudo is Ultrasoft + core correction, Zval =  6.0
     Generated by new atomic code, or converted to UPF format
     Using radial grid of  877 points,  6 beta functions with:
                l(1) =   0
                l(2) =   0
                l(3) =   1
                l(4) =   1
                l(5) =   2
                l(6) =   2
     Q(r) pseudized with  8 coefficients,  rinner =    1.300   1.300   1.300
                                                       1.300   1.300

     PseudoPot. # 3 for Mn read from file:
     /afs/crc.nd.edu/user/j/jencomen/espresso/pseudo/Mn_LDA.UPF
     MD5 check sum: cd4dac482ae0c15019b63d17a2a4ecee
     Pseudo is Ultrasoft + core correction, Zval = 15.0
     Generated by new atomic code, or converted to UPF format
     Using radial grid of  859 points,  6 beta functions with:
                l(1) =   0
                l(2) =   0
                l(3) =   1
                l(4) =   1
                l(5) =   2
                l(6) =   2
     Q(r) pseudized with  8 coefficients,  rinner =    0.950   0.950   0.950
                                                       0.950   0.950

     atomic species   valence    mass     pseudopotential
        Mo            14.00    95.95000     Mo( 1.00)
        Se             6.00    78.97100     Se( 1.00)
        Mn            15.00    54.93800     Mn( 1.00)

      6 Sym. Ops. (no inversion) found ( 4 have fractional translation)

   Cartesian axes

     site n.     atom                  positions (alat units)
         1           Mn  tau(   1) = (   0.0000000   0.2886750   0.4901723  )
         2           Mo  tau(   2) = (  -0.2499999   0.7216875   0.4901723  )
         3           Mo  tau(   3) = (   0.4999997   0.2886750   0.4901723  )
         4           Mo  tau(   4) = (   0.2499999   0.7216875   0.4901723  )
         5           Se  tau(   5) = (   0.2499999   0.1443374   0.7431011  )
         6           Se  tau(   6) = (   0.0000000   0.5773499   0.7431011  )
         7           Se  tau(   7) = (   0.7499996   0.1443374   0.7431011  )
         8           Se  tau(   8) = (   0.4999997   0.5773499   0.7431011  )
         9           Se  tau(   9) = (   0.2499999   0.1443374   0.2372435  )
        10           Se  tau(  10) = (   0.0000000   0.5773499   0.2372435  )
        11           Se  tau(  11) = (   0.7499996   0.1443374   0.2372435  )
        12           Se  tau(  12) = (   0.4999997   0.5773499   0.2372435  )

     number of k points=    14  gaussian smearing, width (Ry)=  0.0100
                       cart. coord. in units 2pi/alat
        k(    1) = (   0.0000000   0.0000000   0.0000000), wk =   0.0200000
        k(    2) = (   0.0000000   0.1154701   0.0000000), wk =   0.1200000
        k(    3) = (   0.0000000   0.2309401   0.0000000), wk =   0.1200000
        k(    4) = (   0.0000000   0.3464102   0.0000000), wk =   0.1200000
        k(    5) = (   0.0000000   0.4618802   0.0000000), wk =   0.1200000
        k(    6) = (   0.0000000  -0.5773503   0.0000000), wk =   0.0600000
        k(    7) = (   0.1000000   0.1732051   0.0000000), wk =   0.1200000
        k(    8) = (   0.1000000   0.2886751   0.0000000), wk =   0.2400000
        k(    9) = (   0.1000000   0.4041452   0.0000000), wk =   0.2400000
        k(   10) = (   0.1000000   0.5196152   0.0000000), wk =   0.2400000
        k(   11) = (   0.2000000   0.3464102   0.0000000), wk =   0.1200000
        k(   12) = (   0.2000000   0.4618802   0.0000000), wk =   0.2400000
        k(   13) = (   0.2000000   0.5773503   0.0000000), wk =   0.1200000
        k(   14) = (   0.3000000   0.5196152   0.0000000), wk =   0.1200000

     Largest allocated arrays     est. size (Mb)     dimensions
     Largest temporary arrays     est. size (Mb)     dimensions

     Check: negative/imaginary core charge=   -0.000003    0.000000

     Initial potential from superposition of free atoms
     Check: negative starting charge=   -0.000724

     starting charge  104.49690, renormalised to  105.00000

     negative rho (up, down):  7.271E-04 0.000E+00
     Starting wfc are   84 randomized atomic wfcs

     Self-consistent Calculation

     iteration #  1     ecut=    70.00 Ry     beta=0.70
     CG style diagonalization
     ethr =  1.00E-02,  avg # of iterations =  2.6

     negative rho (up, down):  5.311E-05 0.000E+00

     total energy              =    -974.17750988 Ry
     Harris-Foulkes estimate   =    -975.82151372 Ry
     estimated scf accuracy    <       1.96336709 Ry

[...]

     iteration # 13     ecut=    70.00 Ry     beta=0.70
     CG style diagonalization
     c_bands:  1 eigenvalues not converged
     c_bands:  1 eigenvalues not converged
     ethr =  1.87E-03,  avg # of iterations =  5.3

[...]

     End of self-consistent calculation

          k = 0.0000 0.0000 0.0000 ( 48761 PWs)   bands (ev):

   -78.6840 -61.2359 -61.2135 -61.2135 -47.8775 -47.8083 -47.8083 -35.5750
   -35.4805 -35.4770 -35.4770 -35.4292 -35.4291 -35.3355 -35.2892 -35.2891
   -15.0854 -14.0437 -13.1827 -13.1376 -13.1375 -13.0561 -12.8454 -12.8453
    -6.5759  -6.4606  -6.4605  -6.1202  -5.7092  -5.4764  -5.4764  -4.4096
    -4.4096  -4.3763  -3.4606  -3.2209  -3.2209  -2.6298  -2.5963  -2.5963
    -2.5386  -2.4120  -2.4119  -1.6578  -1.6578  -1.4632  -1.4632  -1.2869
    -1.1827  -1.1827  -1.1238  -0.9766   0.5159   0.5159   0.9680   1.4435
     1.7283   1.7283   1.7694   1.7695   2.6617   2.6618   2.6665   2.6665

[...]

     the Fermi energy is     0.4838 ev

!    total energy              =    -975.65860408 Ry
     Harris-Foulkes estimate   =    -975.65860408 Ry
     estimated scf accuracy    <          2.6E-10 Ry

     The total energy is the sum of the following terms:

     one-electron contribution =   -4392.43145727 Ry
     hartree contribution      =    2201.13179415 Ry
     xc contribution           =    -318.50920265 Ry
     ewald contribution        =    1534.15790092 Ry
     smearing contrib. (-TS)   =      -0.00763923 Ry

     convergence has been achieved in  31 iterations

[...]

     Forces acting on atoms (Ry/au):

     atom    1 type  3   force =     0.00000000    0.00000000   -0.00001461
     atom    2 type  1   force =    -0.00265038   -0.00153020    0.00000208
     atom    3 type  1   force =     0.00000000    0.00306040    0.00000208
     atom    4 type  1   force =     0.00265038   -0.00153020    0.00000208
     atom    5 type  2   force =    -0.02624162    0.01515061   -0.01920287
     atom    6 type  2   force =     0.00000000   -0.03030122   -0.01920287
     atom    7 type  2   force =     0.02624162    0.01515061   -0.01920287
     atom    8 type  2   force =     0.00000000    0.00000000    0.00721101
     atom    9 type  2   force =    -0.02624176    0.01515069    0.01920521
     atom   10 type  2   force =    -0.00000000   -0.03030138    0.01920521
     atom   11 type  2   force =     0.02624176    0.01515069    0.01920521
     atom   12 type  2   force =     0.00000000    0.00000000   -0.00720966

     Total force =     0.088622     Total SCF correction =     0.000059

     entering subroutine stress ...

     negative rho (up, down):  9.121E-04 0.000E+00
          total   stress  (Ry/bohr**3)                   (kbar)     P=   -8.42
  -0.00005356   0.00000000   0.00000000         -7.88      0.00      0.00
   0.00000000  -0.00005356   0.00000000          0.00     -7.88      0.00
   0.00000000   0.00000000  -0.00006457          0.00      0.00     -9.50

     BFGS Geometry Optimization

     number of scf cycles    =   1
     number of bfgs steps    =   0

     energy   new            =    -975.6586040822 Ry

     new trust radius        =       0.0358749737 bohr
     new conv_thr            =       0.0000000100 Ry

ATOMIC_POSITIONS (angstrom)
Mn       0.000000000   1.875085000   3.183900270
Mo      -1.625273523   4.686902253   3.183909099
Mo       3.247742000   1.876704494   3.183909099
Mo       1.625273523   4.686902253   3.183909099
Se       1.609984531   0.945559357   4.816642279
Se       0.000000000   3.734134286   4.816642279
Se       4.885499469   0.945559357   4.816642279
Se       3.247742000   3.750169000   4.830619902
Se       1.609984456   0.945559400   1.551174960
Se       0.000000000   3.734134201   1.551174960
Se       4.885499544   0.945559400   1.551174960
Se       3.247742000   3.750169000   1.537196813

     Writing output data file mose2_mn.save
     Check: negative starting charge=   -0.000724
     NEW-OLD atomic charge density approx. for the potential

     Check: negative/imaginary core charge=   -0.000003    0.000000
     Check: negative starting charge=   -0.000727

[...]

     energy   old            =    -975.6586040822 Ry
     energy   new            =    -975.6659452189 Ry

     CASE: energy  _new < energy  _old

     WARNING: bfgs curvature condition failed, Theta= 0.924
     new trust radius        =       0.0394624711 bohr
     new conv_thr            =       0.0000000026 Ry

[...]

     Threshold (ethr) on eigenvalues was too large:
     Diagonalizing with lowered threshold

     CG style diagonalization
     c_bands:  1 eigenvalues not converged
     c_bands:  2 eigenvalues not converged
     c_bands:  1 eigenvalues not converged
     c_bands:  2 eigenvalues not converged
     c_bands:  2 eigenvalues not converged
     c_bands:  2 eigenvalues not converged
     c_bands:  1 eigenvalues not converged
     c_bands:  3 eigenvalues not converged
     c_bands:  2 eigenvalues not converged
     c_bands:  3 eigenvalues not converged
     c_bands:  5 eigenvalues not converged
     c_bands:  5 eigenvalues not converged
     ethr =  6.82E-08,  avg # of iterations =  5.2

[...]

     number of scf cycles    =   8
     number of bfgs steps    =   7

     energy   old            =    -975.6830765548 Ry
     energy   new            =    -975.6831512387 Ry

     CASE: energy  _new < energy  _old

     new trust radius        =       0.0112948578 bohr
     new conv_thr            =            1.0E-10 Ry

ATOMIC_POSITIONS (angstrom)
Mn      -0.000000000   1.875085000   3.183912408
Mo      -1.655185043   4.669632829   3.183910899
Mo       3.247742000   1.911243342   3.183910899
Mo       1.655185043   4.669632829   3.183910899
Se       1.551886446   0.979102302   4.766686390
Se       0.000000000   3.667048396   4.766686390
Se       4.943597554   0.979102302   4.766686390
Se       3.247742000   3.750169000   4.866172251
Se       1.551879744   0.979106171   1.601129474
Se       0.000000000   3.667040658   1.601129474
Se       4.943604256   0.979106171   1.601129474
Se       3.247742000   3.750169000   1.501631053

     Writing output data file mose2_mn.save
     Check: negative starting charge=   -0.000729
     NEW-OLD atomic charge density approx. for the potential

     Check: negative/imaginary core charge=   -0.000003    0.000000
     Check: negative starting charge=   -0.000729

[...]

     Self-consistent Calculation

     iteration #  1     ecut=    70.00 Ry     beta=0.70
     CG style diagonalization
     c_bands:  1 eigenvalues not converged
     ethr =  1.00E-06,  avg # of iterations =  4.2

     Threshold (ethr) on eigenvalues was too large:
     Diagonalizing with lowered threshold

     CG style diagonalization
     c_bands:  2 eigenvalues not converged
     c_bands:  4 eigenvalues not converged
     c_bands:  4 eigenvalues not converged
     c_bands:  5 eigenvalues not converged
     c_bands:  5 eigenvalues not converged
     ethr =  2.31E-08,  avg # of iterations =  9.7

[...]

     total energy              =    -975.68320737 Ry
     Harris-Foulkes estimate   =    -975.68320737 Ry
     estimated scf accuracy    <          1.2E-10 Ry

     iteration # 12     ecut=    70.00 Ry     beta=0.70
     CG style diagonalization
     ethr =  1.12E-13,  avg # of iterations =  5.3

[...]

     End of self-consistent calculation

[...]

          k = 0.3000 0.5196 0.0000 ( 48786 PWs)   bands (ev):

   -78.6947 -61.1881 -61.1819 -61.1735 -47.8682 -47.8621 -47.8621 -35.4648
   -35.4318 -35.4094 -35.3956 -35.3840 -35.3652 -35.3639 -35.3355 -35.2842
   -14.4103 -14.0748 -13.9327 -13.7007 -13.4669 -13.1410 -12.9894 -12.7209
    -5.7909  -5.5167  -5.4687  -5.3430  -5.3078  -4.8101  -4.5647  -4.5283
    -4.4068  -4.2577  -4.2046  -4.0142  -3.8315  -3.7527  -3.5070  -3.4858
    -3.3156  -2.5343  -2.4973  -2.3597  -2.2623  -1.7851  -1.5314  -1.3684
    -1.3653  -1.3365  -1.2984  -0.7543   0.3082   0.7686   0.8562   0.9168
     1.1320   1.2754   1.5306   1.5496   1.6884   1.7843   1.9694   2.3785

     the Fermi energy is     0.4679 ev

!    total energy              =    -975.68320737 Ry
     Harris-Foulkes estimate   =    -975.68320737 Ry
     estimated scf accuracy    <          7.3E-11 Ry

     The total energy is the sum of the following terms:

     one-electron contribution =   -4430.80511731 Ry
     hartree contribution      =    2220.32618163 Ry
     xc contribution           =    -318.70839679 Ry
     ewald contribution        =    1553.50929429 Ry
     smearing contrib. (-TS)   =      -0.00516920 Ry

     convergence has been achieved in  12 iterations

     negative rho (up, down):  1.096E-03 0.000E+00

     Forces acting on atoms (Ry/au):

     atom    1 type  3   force =     0.00000000    0.00000000    0.00000347
     atom    2 type  1   force =     0.00001886    0.00001089   -0.00000642
     atom    3 type  1   force =     0.00000000   -0.00002178   -0.00000642
     atom    4 type  1   force =    -0.00001886    0.00001089   -0.00000642
     atom    5 type  2   force =    -0.00003612    0.00002085   -0.00051578
     atom    6 type  2   force =     0.00000000   -0.00004171   -0.00051578
     atom    7 type  2   force =     0.00003612    0.00002085   -0.00051578
     atom    8 type  2   force =     0.00000000    0.00000000    0.00037764
     atom    9 type  2   force =    -0.00003373    0.00001947    0.00051842
     atom   10 type  2   force =     0.00000000   -0.00003895    0.00051842
     atom   11 type  2   force =     0.00003373    0.00001947    0.00051842
     atom   12 type  2   force =     0.00000000    0.00000000   -0.00036980

     Total force =     0.001377     Total SCF correction =     0.000019

     entering subroutine stress ...

     negative rho (up, down):  1.096E-03 0.000E+00
          total   stress  (Ry/bohr**3)                   (kbar)     P=   -2.29
  -0.00002213   0.00000000   0.00000000         -3.26      0.00      0.00
   0.00000000  -0.00002213   0.00000000          0.00     -3.26      0.00
   0.00000000   0.00000000  -0.00000251          0.00      0.00     -0.37

     bfgs converged in   9 scf cycles and   8 bfgs steps
     (criteria: energy <  1.0E-04, force <  1.0E-03)

     End of BFGS Geometry Optimization

     Final energy   =    -975.6832073734 Ry
Begin final coordinates

ATOMIC_POSITIONS (angstrom)
Mn      -0.000000000   1.875085000   3.183912408
Mo      -1.655185043   4.669632829   3.183910899
Mo       3.247742000   1.911243342   3.183910899
Mo       1.655185043   4.669632829   3.183910899
Se       1.551886446   0.979102302   4.766686390
Se       0.000000000   3.667048396   4.766686390
Se       4.943597554   0.979102302   4.766686390
Se       3.247742000   3.750169000   4.866172251
Se       1.551879744   0.979106171   1.601129474
Se       0.000000000   3.667040658   1.601129474
Se       4.943604256   0.979106171   1.601129474
Se       3.247742000   3.750169000   1.501631053
End final coordinates

     Writing output data file mose2_mn.save

     General routines

     Parallel routines

   This run was terminated on:  17:32:19  26Apr2017

   JOB DONE.