     Program PWSCF v.5.4.0 starts on 26Apr2017 at 14: 7:37

     Current dimensions of program PWSCF are:
     Max number of different atomic species (ntypx) = 10
     Max number of k-points (npk) =  40000
     Max angular momentum in pseudopotentials (lmaxx) =  3

     Subspace diagonalization in iterative solution of the eigenvalue problem:
     a serial algorithm will be used

     bravais-lattice index     =            4
     lattice parameter (alat)  =      12.2747  a.u.
     unit-cell volume          =    4931.5212 (a.u.)^3
     number of atoms/cell      =           12
     number of atomic types    =            3
     number of electrons       =       103.00
     number of Kohn-Sham states=           62
     kinetic-energy cutoff     =      70.0000  Ry
     charge density cutoff     =     700.0000  Ry
     convergence threshold     =      1.0E-08
     mixing beta               =       0.7000
     number of iterations used =            8  plain     mixing
     Exchange-correlation      =  SLA  PZ   NOGX NOGC ( 1  1  0  0 0 0)
     nstep                     =           50

     celldm(1)=  12.274692  celldm(2)=   0.000000  celldm(3)=   3.079062
     celldm(4)=   0.000000  celldm(5)=   0.000000  celldm(6)=   0.000000

     crystal axes: (cart. coord. in units of alat)
               a(1) = (   1.000000   0.000000   0.000000 )
               a(2) = (  -0.500000   0.866025   0.000000 )
               a(3) = (   0.000000   0.000000   3.079062 )

     reciprocal axes: (cart. coord. in units 2 pi/alat)
               b(1) = (  1.000000  0.577350  0.000000 )
               b(2) = (  0.000000  1.154701  0.000000 )
               b(3) = (  0.000000  0.000000  0.324774 )

     PseudoPot. # 1 for Mo read from file:
     /afs/crc.nd.edu/user/j/jencomen/espresso/pseudo/Mo_LDA.UPF
     MD5 check sum: f5ddb34c5c8cdf9395e9f47ee8c17b30
     Pseudo is Ultrasoft + core correction, Zval = 14.0
     Generated by new atomic code, or converted to UPF format
     Using radial grid of  889 points,  6 beta functions with:
                l(1) =   0
                l(2) =   0
                l(3) =   1
                l(4) =   1
                l(5) =   2
                l(6) =   2
     Q(r) pseudized with  6 coefficients,  rinner =    1.000   1.000   1.000
                                                       1.000   1.000

     PseudoPot. # 2 for Se read from file:
     /afs/crc.nd.edu/user/j/jencomen/espresso/pseudo/Se_LDA.UPF
     MD5 check sum: 29da00cbf48820a058e3666752a4b224
     Pseudo is Ultrasoft + core correction, Zval =  6.0
     Generated by new atomic code, or converted to UPF format
     Using radial grid of  877 points,  6 beta functions with:
                l(1) =   0
                l(2) =   0
                l(3) =   1
                l(4) =   1
                l(5) =   2
                l(6) =   2
     Q(r) pseudized with  8 coefficients,  rinner =    1.300   1.300   1.300
                                                       1.300   1.300

     PseudoPot. # 3 for V  read from file:
     /afs/crc.nd.edu/user/j/jencomen/espresso/pseudo/V_LDA.UPF
     MD5 check sum: 6837650c1b6794e70f2dd415b006170f
     Pseudo is Ultrasoft + core correction, Zval = 13.0
     Generated by new atomic code, or converted to UPF format
     Using radial grid of  853 points,  6 beta functions with:
                l(1) =   0
                l(2) =   0
                l(3) =   1
                l(4) =   1
                l(5) =   2
                l(6) =   2
     Q(r) pseudized with  8 coefficients,  rinner =    1.100   1.100   1.100
                                                       1.100   1.100

     atomic species   valence    mass     pseudopotential
        Mo            14.00    95.95000     Mo( 1.00)
        Se             6.00    78.97100     Se( 1.00)
        V             13.00    50.94150     V ( 1.00)

      6 Sym. Ops. (no inversion) found ( 4 have fractional translation)

   Cartesian axes

     site n.     atom                  positions (alat units)
         1           V   tau(   1) = (   0.0000000   0.2886750   0.4901723  )
         2           Mo  tau(   2) = (  -0.2499999   0.7216875   0.4901723  )
         3           Mo  tau(   3) = (   0.4999997   0.2886750   0.4901723  )
         4           Mo  tau(   4) = (   0.2499999   0.7216875   0.4901723  )
         5           Se  tau(   5) = (   0.2499999   0.1443374   0.7431011  )
         6           Se  tau(   6) = (   0.0000000   0.5773499   0.7431011  )
         7           Se  tau(   7) = (   0.7499996   0.1443374   0.7431011  )
         8           Se  tau(   8) = (   0.4999997   0.5773499   0.7431011  )
         9           Se  tau(   9) = (   0.2499999   0.1443374   0.2372435  )
        10           Se  tau(  10) = (   0.0000000   0.5773499   0.2372435  )
        11           Se  tau(  11) = (   0.7499996   0.1443374   0.2372435  )
        12           Se  tau(  12) = (   0.4999997   0.5773499   0.2372435  )

     number of k points=    14  gaussian smearing, width (Ry)=  0.0100
                       cart. coord. in units 2pi/alat
        k(    1) = (   0.0000000   0.0000000   0.0000000), wk =   0.0200000
        k(    2) = (   0.0000000   0.1154701   0.0000000), wk =   0.1200000
        k(    3) = (   0.0000000   0.2309401   0.0000000), wk =   0.1200000
        k(    4) = (   0.0000000   0.3464102   0.0000000), wk =   0.1200000
        k(    5) = (   0.0000000   0.4618802   0.0000000), wk =   0.1200000
        k(    6) = (   0.0000000  -0.5773503   0.0000000), wk =   0.0600000
        k(    7) = (   0.1000000   0.1732051   0.0000000), wk =   0.1200000
        k(    8) = (   0.1000000   0.2886751   0.0000000), wk =   0.2400000
        k(    9) = (   0.1000000   0.4041452   0.0000000), wk =   0.2400000
        k(   10) = (   0.1000000   0.5196152   0.0000000), wk =   0.2400000
        k(   11) = (   0.2000000   0.3464102   0.0000000), wk =   0.1200000
        k(   12) = (   0.2000000   0.4618802   0.0000000), wk =   0.2400000
        k(   13) = (   0.2000000   0.5773503   0.0000000), wk =   0.1200000
        k(   14) = (   0.3000000   0.5196152   0.0000000), wk =   0.1200000

     Largest allocated arrays     est. size (Mb)     dimensions
     Largest temporary arrays     est. size (Mb)     dimensions

     Initial potential from superposition of free atoms
     Check: negative starting charge=   -0.001214

     starting charge  102.99594, renormalised to  103.00000

     negative rho (up, down):  1.214E-03 0.000E+00
     Starting wfc are   81 randomized atomic wfcs

     Self-consistent Calculation

     iteration #  1     ecut=    70.00 Ry     beta=0.70
     CG style diagonalization
     ethr =  1.00E-02,  avg # of iterations =  2.6

     negative rho (up, down):  2.191E-04 0.000E+00

     total energy              =    -908.96629796 Ry
     Harris-Foulkes estimate   =    -909.80701669 Ry
     estimated scf accuracy    <       1.04246712 Ry

[...]

     End of self-consistent calculation

          k = 0.0000 0.0000 0.0000 ( 48761 PWs)   bands (ev):

   -63.9381 -61.2825 -61.2601 -61.2600 -38.1437 -38.1437 -38.1271 -35.6542
   -35.5267 -35.5267 -35.4959 -35.4446 -35.4445 -35.3799 -35.3606 -35.3606
   -15.0536 -13.9924 -13.1947 -13.0752 -13.0752 -13.0639 -12.8115 -12.8114
    -6.4684  -6.4683  -6.4142  -6.1435  -5.6069  -5.4804  -5.4803  -4.4208
    -4.3983  -4.3983  -3.4560  -3.2021  -3.2020  -2.5945  -2.5858  -2.5858
    -2.5070  -2.3546  -2.3546  -1.4158  -1.4157  -1.3786  -1.3786  -1.2477
    -1.1069  -1.0947  -1.0947  -0.6845   1.2468   1.2469   1.3830   1.5860
     1.7664   1.7665   2.3823   2.3823   2.7103   2.7103

[...]

     the Fermi energy is    -0.6715 ev

!    total energy              =    -909.66851390 Ry
     Harris-Foulkes estimate   =    -909.66851390 Ry
     estimated scf accuracy    <          4.7E-09 Ry

     The total energy is the sum of the following terms:

     one-electron contribution =   -4151.01100429 Ry
     hartree contribution      =    2079.92286097 Ry
     xc contribution           =    -311.90109283 Ry
     ewald contribution        =    1473.32559595 Ry
     smearing contrib. (-TS)   =      -0.00487370 Ry

     convergence has been achieved in  14 iterations

[...]

     Forces acting on atoms (Ry/au):

     atom    1 type  3   force =     0.00000000    0.00000000    0.00000597
     atom    2 type  1   force =     0.00036757    0.00021222   -0.00000667
     atom    3 type  1   force =     0.00000000   -0.00042443   -0.00000667
     atom    4 type  1   force =    -0.00036757    0.00021222   -0.00000667
     atom    5 type  2   force =    -0.01659590    0.00958165   -0.00673755
     atom    6 type  2   force =    -0.00000000   -0.01916330   -0.00673755
     atom    7 type  2   force =     0.01659590    0.00958165   -0.00673755
     atom    8 type  2   force =     0.00000000    0.00000000    0.01200960
     atom    9 type  2   force =    -0.01659527    0.00958128    0.00674140
     atom   10 type  2   force =    -0.00000000   -0.01916257    0.00674140
     atom   11 type  2   force =     0.01659527    0.00958128    0.00674140
     atom   12 type  2   force =     0.00000000    0.00000000   -0.01200709

     Total force =     0.052581     Total SCF correction =     0.000274

     entering subroutine stress ...

     negative rho (up, down):  3.924E-04 0.000E+00
          total   stress  (Ry/bohr**3)                   (kbar)     P=   -1.75
  -0.00001232   0.00000000   0.00000000         -1.81      0.00      0.00
   0.00000000  -0.00001232   0.00000000          0.00     -1.81      0.00
  -0.00000000  -0.00000000  -0.00001104         -0.00     -0.00     -1.62

     BFGS Geometry Optimization

     number of scf cycles    =   1
     number of bfgs steps    =   0

     energy   new            =    -909.6685138995 Ry

     new trust radius        =       0.0203137988 bohr
     new conv_thr            =       0.0000000100 Ry

ATOMIC_POSITIONS (angstrom)
V        0.000000000   1.875085000   3.183911159
Mo      -1.623676491   4.687824300   3.183904468
Mo       3.247742000   1.874860401   3.183904468
Mo       1.623676491   4.687824300   3.183904468
Se       1.615088826   0.942612390   4.823238640
Se       0.000000000   3.740028219   4.823238640
Se       4.880395174   0.942612390   4.823238640
Se       3.247742000   3.750169000   4.833159206
Se       1.615089162   0.942612197   1.544579396
Se       0.000000000   3.740028607   1.544579396
Se       4.880394838   0.942612197   1.544579396
Se       3.247742000   3.750169000   1.534658122

     Writing output data file mose2_v.save
     Check: negative starting charge=   -0.001214
     NEW-OLD atomic charge density approx. for the potential
     Check: negative starting charge=   -0.001216

[...]

     iteration #  1     ecut=    70.00 Ry     beta=0.70
     CG style diagonalization
     c_bands:  1 eigenvalues not converged
     c_bands:  1 eigenvalues not converged
     c_bands:  1 eigenvalues not converged
     c_bands:  4 eigenvalues not converged
     c_bands:  1 eigenvalues not converged
     c_bands:  2 eigenvalues not converged
     c_bands:  1 eigenvalues not converged
     c_bands:  5 eigenvalues not converged
     c_bands:  2 eigenvalues not converged
     ethr =  1.00E-06,  avg # of iterations =  6.5

[...]

     energy   old            =    -909.6685138995 Ry
     energy   new            =    -909.6709291780 Ry

     CASE: energy  _new < energy  _old

[...]

     Threshold (ethr) on eigenvalues was too large:
     Diagonalizing with lowered threshold

     CG style diagonalization
     c_bands:  1 eigenvalues not converged
     c_bands:  1 eigenvalues not converged
     c_bands:  1 eigenvalues not converged
     c_bands:  1 eigenvalues not converged
     c_bands:  3 eigenvalues not converged
     c_bands:  2 eigenvalues not converged
     c_bands:  2 eigenvalues not converged
     c_bands:  4 eigenvalues not converged
     c_bands:  5 eigenvalues not converged
     c_bands:  4 eigenvalues not converged
     c_bands:  5 eigenvalues not converged
     ethr =  9.96E-08,  avg # of iterations =  5.6

[...]

     iteration #  1     ecut=    70.00 Ry     beta=0.70
     CG style diagonalization
     c_bands:  1 eigenvalues not converged
     c_bands:  1 eigenvalues not converged
     ethr =  1.00E-06,  avg # of iterations =  4.9

[...]

     number of scf cycles    =   8
     number of bfgs steps    =   7

     energy   old            =    -909.6744427031 Ry
     energy   new            =    -909.6745051463 Ry

     CASE: energy  _new < energy  _old

     new trust radius        =       0.0039659711 bohr
     new conv_thr            =            1.0E-10 Ry

ATOMIC_POSITIONS (angstrom)
V       -0.000000000   1.875085000   3.183909963
Mo      -1.643783097   4.676215745   3.183906325
Mo       3.247742000   1.898077509   3.183906325
Mo       1.643783097   4.676215745   3.183906325
Se       1.590072743   0.957055432   4.804574269
Se      -0.000000000   3.711142135   4.804574269
Se       4.905411257   0.957055432   4.804574269
Se       3.247742000   3.750169000   4.863966422
Se       1.590073323   0.957055098   1.563242767
Se       0.000000000   3.711142804   1.563242767
Se       4.905410677   0.957055098   1.563242767
Se       3.247742000   3.750169000   1.503849533

     Writing output data file mose2_v.save
     Check: negative starting charge=   -0.001198
     NEW-OLD atomic charge density approx. for the potential
     Check: negative starting charge=   -0.001197

[...]

     Self-consistent Calculation

[...]

     Threshold (ethr) on eigenvalues was too large:
     Diagonalizing with lowered threshold

     CG style diagonalization
     c_bands:  1 eigenvalues not converged
     ethr =  2.06E-09,  avg # of iterations = 13.0

[...]

     total energy              =    -909.67451719 Ry
     Harris-Foulkes estimate   =    -909.67451719 Ry
     estimated scf accuracy    <          1.1E-10 Ry

     iteration # 10     ecut=    70.00 Ry     beta=0.70
     CG style diagonalization
     ethr =  1.11E-13,  avg # of iterations =  6.4

[...]

     End of self-consistent calculation

[...]

          k = 0.3000 0.5196 0.0000 ( 48786 PWs)   bands (ev):

   -63.9075 -61.2731 -61.2686 -61.2595 -38.1298 -38.1194 -38.1190 -35.5637
   -35.5158 -35.4854 -35.4609 -35.4522 -35.4349 -35.4311 -35.4127 -35.3943
   -14.2014 -13.9616 -13.8572 -13.5475 -13.4272 -13.1743 -12.8709 -12.6845
    -5.7363  -5.3966  -5.3402  -5.2801  -5.2157  -4.6463  -4.4239  -4.3710
    -4.3324  -4.2489  -4.1449  -3.9356  -3.7645  -3.6725  -3.5460  -3.4240
    -3.2202  -2.4127  -2.3959  -2.2542  -2.1610  -1.6677  -1.5411  -1.4110
    -1.3562  -1.1573  -1.0148  -0.4835   0.9238   1.0118   1.0684   1.1792
     1.6010   1.6488   1.6501   1.6962   1.7661   1.8264

     the Fermi energy is    -0.6498 ev

!    total energy              =    -909.67451719 Ry
     Harris-Foulkes estimate   =    -909.67451719 Ry
     estimated scf accuracy    <          2.8E-11 Ry

     The total energy is the sum of the following terms:

     one-electron contribution =   -4158.39494342 Ry
     hartree contribution      =    2083.61568157 Ry
     xc contribution           =    -311.93162913 Ry
     ewald contribution        =    1477.04108451 Ry
     smearing contrib. (-TS)   =      -0.00471071 Ry

     convergence has been achieved in  10 iterations

     negative rho (up, down):  3.915E-04 0.000E+00

     Forces acting on atoms (Ry/au):

     atom    1 type  3   force =     0.00000000    0.00000000   -0.00000033
     atom    2 type  1   force =     0.00047380    0.00027355    0.00000236
     atom    3 type  1   force =     0.00000000   -0.00054709    0.00000236
     atom    4 type  1   force =    -0.00047380    0.00027355    0.00000236
     atom    5 type  2   force =     0.00013802   -0.00007969    0.00020763
     atom    6 type  2   force =     0.00000000    0.00015937    0.00020763
     atom    7 type  2   force =    -0.00013802   -0.00007969    0.00020763
     atom    8 type  2   force =     0.00000000    0.00000000    0.00088954
     atom    9 type  2   force =     0.00013649   -0.00007880   -0.00020916
     atom   10 type  2   force =     0.00000000    0.00015760   -0.00020916
     atom   11 type  2   force =    -0.00013649   -0.00007880   -0.00020916
     atom   12 type  2   force =     0.00000000    0.00000000   -0.00089172

     Total force =     0.001702     Total SCF correction =     0.000023

     entering subroutine stress ...

     negative rho (up, down):  3.915E-04 0.000E+00
          total   stress  (Ry/bohr**3)                   (kbar)     P=   -1.11
  -0.00001186   0.00000000   0.00000000         -1.74      0.00      0.00
   0.00000000  -0.00001186   0.00000000          0.00     -1.74      0.00
   0.00000000   0.00000000   0.00000103          0.00      0.00      0.15

     bfgs converged in   9 scf cycles and   8 bfgs steps
     (criteria: energy <  1.0E-04, force <  1.0E-03)

     End of BFGS Geometry Optimization

     Final energy   =    -909.6745171906 Ry
Begin final coordinates

ATOMIC_POSITIONS (angstrom)
V       -0.000000000   1.875085000   3.183909963
Mo      -1.643783097   4.676215745   3.183906325
Mo       3.247742000   1.898077509   3.183906325
Mo       1.643783097   4.676215745   3.183906325
Se       1.590072743   0.957055432   4.804574269
Se      -0.000000000   3.711142135   4.804574269
Se       4.905411257   0.957055432   4.804574269
Se       3.247742000   3.750169000   4.863966422
Se       1.590073323   0.957055098   1.563242767
Se       0.000000000   3.711142804   1.563242767
Se       4.905410677   0.957055098   1.563242767
Se       3.247742000   3.750169000   1.503849533
End final coordinates

     Writing output data file mose2_v.save

     General routines

     Parallel routines

   This run was terminated on:  16:34: 9  26Apr2017

   JOB DONE.