     Program PWSCF v.5.4.0 starts on 26Apr2017 at 15:50:18

     Current dimensions of program PWSCF are:
     Max number of different atomic species (ntypx) = 10
     Max number of k-points (npk) =  40000
     Max angular momentum in pseudopotentials (lmaxx) =  3

     Subspace diagonalization in iterative solution of the eigenvalue problem:
     a serial algorithm will be used

     bravais-lattice index     =            4
     lattice parameter (alat)  =      12.2747  a.u.
     unit-cell volume          =    4931.5212 (a.u.)^3
     number of atoms/cell      =           12
     number of atomic types    =            3
     number of electrons       =       103.00
     number of Kohn-Sham states=           62
     kinetic-energy cutoff     =      70.0000  Ry
     charge density cutoff     =     700.0000  Ry
     convergence threshold     =      1.0E-08
     mixing beta               =       0.7000
     number of iterations used =            8  plain     mixing
     Exchange-correlation      = SLA  PZ   NOGX NOGC ( 1  1  0  0 0 0)
     nstep                     =           50

     celldm(1)=  12.274692  celldm(2)=   0.000000  celldm(3)=   3.079062
     celldm(4)=   0.000000  celldm(5)=   0.000000  celldm(6)=   0.000000

     crystal axes: (cart. coord. in units of alat)
               a(1) = (   1.000000   0.000000   0.000000 )
               a(2) = (  -0.500000   0.866025   0.000000 )
               a(3) = (   0.000000   0.000000   3.079062 )

     reciprocal axes: (cart. coord. in units 2 pi/alat)
               b(1) = (  1.000000  0.577350  0.000000 )
               b(2) = (  0.000000  1.154701  0.000000 )
               b(3) = (  0.000000  0.000000  0.324774 )

     PseudoPot. # 1 for Mo read from file:
     /afs/crc.nd.edu/user/j/jencomen/espresso/pseudo/Mo_LDA.UPF
     MD5 check sum: f5ddb34c5c8cdf9395e9f47ee8c17b30
     Pseudo is Ultrasoft + core correction, Zval = 14.0
     Generated by new atomic code, or converted to UPF format
     Using radial grid of  889 points,  6 beta functions with:
                l(1) =   0
                l(2) =   0
                l(3) =   1
                l(4) =   1
                l(5) =   2
                l(6) =   2
     Q(r) pseudized with  6 coefficients,  rinner =    1.000   1.000   1.000
                                                       1.000   1.000

     PseudoPot. # 2 for Se read from file:
     /afs/crc.nd.edu/user/j/jencomen/espresso/pseudo/Se_LDA.UPF
     MD5 check sum: 29da00cbf48820a058e3666752a4b224
     Pseudo is Ultrasoft + core correction, Zval =  6.0
     Generated by new atomic code, or converted to UPF format
     Using radial grid of  877 points,  6 beta functions with:
                l(1) =   0
                l(2) =   0
                l(3) =   1
                l(4) =   1
                l(5) =   2
                l(6) =   2
     Q(r) pseudized with  8 coefficients,  rinner =    1.300   1.300   1.300
                                                       1.300   1.300

     PseudoPot. # 3 for As read from file:
     /afs/crc.nd.edu/user/j/jencomen/espresso/pseudo/As_LDA.UPF
     MD5 check sum: 6d2e8cbe4ed9d0db7c6ef7a361cc050d
     Pseudo is Ultrasoft + core correction, Zval =  5.0
     Generated by new atomic code, or converted to UPF format
     Using radial grid of  875 points,  6 beta functions with:
                l(1) =   0
                l(2) =   0
                l(3) =   1
                l(4) =   1
                l(5) =   2
                l(6) =   2
     Q(r) pseudized with  8 coefficients,  rinner =    1.300   1.300   1.300
                                                       1.300   1.300

     atomic species   valence    mass     pseudopotential
        Mo            14.00    95.95000     Mo( 1.00)
        Se             6.00    78.97100     Se( 1.00)
        As             5.00    74.92100     As( 1.00)

      6 Sym. Ops. (no inversion) found

   Cartesian axes

     site n.     atom                  positions (alat units)
         1           Mo  tau(   1) = (   0.0000000   0.2886750   0.4901723  )
         2           Mo  tau(   2) = (  -0.2499999   0.7216875   0.4901723  )
         3           Mo  tau(   3) = (   0.4999997   0.2886750   0.4901723  )
         4           Mo  tau(   4) = (   0.2499999   0.7216875   0.4901723  )
         5           Se  tau(   5) = (   0.2499999   0.1443374   0.7431011  )
         6           As  tau(   6) = (   0.0000000   0.5773499   0.7431011  )
         7           Se  tau(   7) = (   0.7499996   0.1443374   0.7431011  )
         8           Se  tau(   8) = (   0.4999997   0.5773499   0.7431011  )
         9           Se  tau(   9) = (   0.2499999   0.1443374   0.2372435  )
        10           Se  tau(  10) = (   0.0000000   0.5773499   0.2372435  )
        11           Se  tau(  11) = (   0.7499996   0.1443374   0.2372435  )
        12           Se  tau(  12) = (   0.4999997   0.5773499   0.2372435  )

     number of k points=    14  gaussian smearing, width (Ry)=  0.0100
                       cart. coord. in units 2pi/alat
        k(    1) = (   0.0000000   0.0000000   0.0000000), wk =   0.0200000
        k(    2) = (   0.0000000   0.1154701   0.0000000), wk =   0.1200000
        k(    3) = (   0.0000000   0.2309401   0.0000000), wk =   0.1200000
        k(    4) = (   0.0000000   0.3464102   0.0000000), wk =   0.1200000
        k(    5) = (   0.0000000   0.4618802   0.0000000), wk =   0.1200000
        k(    6) = (   0.0000000  -0.5773503   0.0000000), wk =   0.0600000
        k(    7) = (   0.1000000   0.1732051   0.0000000), wk =   0.1200000
        k(    8) = (   0.1000000   0.2886751   0.0000000), wk =   0.2400000
        k(    9) = (   0.1000000   0.4041452   0.0000000), wk =   0.2400000
        k(   10) = (   0.1000000   0.5196152   0.0000000), wk =   0.2400000
        k(   11) = (   0.2000000   0.3464102   0.0000000), wk =   0.1200000
        k(   12) = (   0.2000000   0.4618802   0.0000000), wk =   0.2400000
        k(   13) = (   0.2000000   0.5773503   0.0000000), wk =   0.1200000
        k(   14) = (   0.3000000   0.5196152   0.0000000), wk =   0.1200000

     Largest allocated arrays     est. size (Mb)     dimensions
     Largest temporary arrays     est. size (Mb)     dimensions

     Initial potential from superposition of free atoms
     Check: negative starting charge=   -0.000788

     starting charge  102.99596, renormalised to  103.00000

     negative rho (up, down):  7.878E-04 0.000E+00
     Starting wfc are   84 randomized atomic wfcs

     Self-consistent Calculation

     iteration #  1     ecut=    70.00 Ry     beta=0.70
     CG style diagonalization
     ethr =  1.00E-02,  avg # of iterations =  2.6

     negative rho (up, down):  3.585E-06 0.000E+00

     total energy              =    -899.75267278 Ry
     Harris-Foulkes estimate   =    -900.75414909 Ry
     estimated scf accuracy    <       1.22701995 Ry

[...]

     iteration #  4     ecut=    70.00 Ry     beta=0.70
     CG style diagonalization
     c_bands:  1 eigenvalues not converged
     c_bands:  1 eigenvalues not converged
     c_bands:  1 eigenvalues not converged
     ethr =  7.81E-05,  avg # of iterations =  4.9

[...]

     End of self-consistent calculation

          k = 0.0000 0.0000 0.0000 ( 48761 PWs)   bands (ev):

   -61.1950 -61.0311 -61.0096 -61.0096 -35.4847 -35.4847 -35.4077 -35.3866
   -35.2441 -35.2440 -35.2436 -35.1968 -35.1968 -35.1570 -35.0753 -35.0753
   -14.9206 -13.8251 -13.0979 -13.0979 -13.0166 -12.9387 -12.9387 -10.3558
    -6.4400  -6.3124  -6.3124  -6.0850  -5.4565  -5.3080  -5.3080  -4.4804
    -4.4804  -4.1761  -3.3724  -3.2496  -3.2496  -2.6704  -2.6704  -2.4308
    -2.4134  -2.4134  -1.8738  -1.5870  -1.5870  -1.2186  -1.2186  -1.1030
    -0.9777  -0.6690  -0.6690  -0.5379   1.5527   1.5527   1.5908   1.9669
     2.0232   2.0232   2.6525   2.6526   3.1285   3.1362

[...]

     the Fermi energy is    -0.5801 ev

!    total energy              =    -900.59693134 Ry
     Harris-Foulkes estimate   =    -900.59693134 Ry
     estimated scf accuracy    <          2.1E-09 Ry

     The total energy is the sum of the following terms:

     one-electron contribution =   -4135.91903407 Ry
     hartree contribution      =    2072.42708073 Ry
     xc contribution           =    -313.66825773 Ry
     ewald contribution        =    1476.56968525 Ry
     smearing contrib. (-TS)   =      -0.00640552 Ry

     convergence has been achieved in  15 iterations

[...]

     Forces acting on atoms (Ry/au):

     atom    1 type  1   force =    -0.00000000    0.00756772   -0.00843767
     atom    2 type  1   force =     0.00655383   -0.00378386   -0.00843767
     atom    3 type  1   force =     0.00000000    0.00000000    0.00177992
     atom    4 type  1   force =    -0.00655383   -0.00378386   -0.00843767
     atom    5 type  2   force =     0.00123347    0.00071214    0.01403410
     atom    6 type  3   force =     0.00000000    0.00000000    0.02721329
     atom    7 type  2   force =    -0.00123347    0.00071214    0.01403410
     atom    8 type  2   force =     0.00000000   -0.00142428    0.01403410
     atom    9 type  2   force =     0.00235463    0.00135945   -0.01236204
     atom   10 type  2   force =     0.00000000    0.00000000   -0.00869638
     atom   11 type  2   force =    -0.00235463    0.00135945   -0.01236204
     atom   12 type  2   force =    -0.00000000   -0.00271890   -0.01236204

     Total force =     0.047774     Total SCF correction =     0.000099

     entering subroutine stress ...

     negative rho (up, down):  1.231E-04 0.000E+00
          total   stress  (Ry/bohr**3)                   (kbar)     P=    5.34
   0.00001886  -0.00000000   0.00000000          2.77     -0.00      0.00
  -0.00000000   0.00001886  -0.00000000         -0.00      2.77     -0.00
   0.00000000  -0.00000000   0.00007124          0.00     -0.00     10.48

     BFGS Geometry Optimization

     number of scf cycles    =   1
     number of bfgs steps    =   0

     energy   new            =    -900.5969313424 Ry

     new trust radius        =       0.0272132934 bohr
     new conv_thr            =       0.0000000100 Ry

ATOMIC_POSITIONS (angstrom)
Mo       0.000000000   1.879089663   3.179442976
Mo      -1.620402860   4.685709669   3.179442976
Mo       3.247742000   1.875085000   3.184849896
Mo       1.620402860   4.685709669   3.179442976
Se       1.624523722   0.937918849   4.834230524
As       0.000000000   3.750169000   4.841204655
Se       4.870960278   0.937918849   4.834230524
Se       3.247742000   3.749415301   4.834230524
Se       1.625117019   0.938261389   1.534470292
Se       0.000000000   3.750169000   1.536410074
Se       4.870366981   0.938261389   1.534470292
Se       3.247742000   3.748730221   1.534470292

     Writing output data file mose2_as.save
     Check: negative starting charge=   -0.000788
     NEW-OLD atomic charge density approx. for the potential
     Check: negative starting charge=   -0.000784

[...]

     energy   old            =    -900.5969313424 Ry
     energy   new            =    -900.5989079139 Ry

     CASE: energy  _new < energy  _old

[...]

     Threshold (ethr) on eigenvalues was too large:
     Diagonalizing with lowered threshold

     CG style diagonalization
     c_bands:  2 eigenvalues not converged
     c_bands:  5 eigenvalues not converged
     c_bands:  3 eigenvalues not converged
     c_bands:  3 eigenvalues not converged
     ethr =  1.81E-08,  avg # of iterations = 11.6

[...]

     iteration #  1     ecut=    70.00 Ry     beta=0.70
     CG style diagonalization
     c_bands:  1 eigenvalues not converged
     c_bands:  1 eigenvalues not converged
     c_bands:  1 eigenvalues not converged
     c_bands:  2 eigenvalues not converged
     c_bands:  1 eigenvalues not converged
     c_bands:  1 eigenvalues not converged
     c_bands:  1 eigenvalues not converged
     c_bands:  1 eigenvalues not converged
     c_bands:  1 eigenvalues not converged
     c_bands:  1 eigenvalues not converged
     c_bands:  3 eigenvalues not converged
     c_bands:  3 eigenvalues not converged
     c_bands:  3 eigenvalues not converged
     ethr =  1.00E-06,  avg # of iterations =  7.3

[...]

     number of scf cycles    =   8
     number of bfgs steps    =   7

     energy   old            =    -900.6029947086 Ry
     energy   new            =    -900.6032276423 Ry

     CASE: energy  _new < energy  _old

     new trust radius        =       0.0025948900 bohr
     new conv_thr            =       0.0000000002 Ry

ATOMIC_POSITIONS (angstrom)
Mo      -0.000000000   1.913768960   3.171031844
Mo      -1.590369708   4.668370020   3.171031844
Mo       3.247742000   1.875085000   3.184645242
Mo       1.590369708   4.668370020   3.171031844
Se       1.621939549   0.936426876   4.832231588
As      -0.000000000   3.750169000   4.945386557
Se       4.873544451   0.936426876   4.832231588
Se       3.247742000   3.752399247   4.832231588
Se       1.625281996   0.938356639   1.525995717
Se      -0.000000000   3.750169000   1.489086755
Se       4.870202004   0.938356639   1.525995717
Se       3.247742000   3.748539722   1.525995717

     Writing output data file mose2_as.save
     Check: negative starting charge=   -0.000767
     NEW-OLD atomic charge density approx. for the potential
     Check: negative starting charge=   -0.000768

[...]

     Self-consistent Calculation

[...]

     Threshold (ethr) on eigenvalues was too large:
     Diagonalizing with lowered threshold

     CG style diagonalization
     c_bands:  4 eigenvalues not converged
     c_bands:  5 eigenvalues not converged
     c_bands:  5 eigenvalues not converged
     c_bands:  4 eigenvalues not converged
     ethr =  2.35E-09,  avg # of iterations = 12.0

[...]

     total energy              =    -900.60323953 Ry
     Harris-Foulkes estimate   =    -900.60323953 Ry
     estimated scf accuracy    <          5.2E-10 Ry

     iteration #  9     ecut=    70.00 Ry     beta=0.70
     CG style diagonalization
     ethr =  5.08E-13,  avg # of iterations =  4.9

[...]

     End of self-consistent calculation

[...]

          k = 0.3000 0.5196 0.0000 ( 48786 PWs)   bands (ev):

   -61.2227 -61.0270 -61.0207 -61.0122 -35.4396 -35.4263 -35.4223 -35.3281
   -35.2830 -35.2466 -35.2202 -35.1982 -35.1914 -35.1613 -35.1435 -35.1025
   -14.0577 -13.8357 -13.7056 -13.3997 -13.2952 -12.9794 -12.7844 -10.4116
    -5.6872  -5.2817  -5.2307  -5.1682  -5.0764  -4.5110  -4.2901  -4.2321
    -4.1546  -4.0557  -4.0065  -3.7829  -3.6768  -3.5457  -3.3951  -3.2708
    -3.0275  -2.4404  -2.2238  -2.1608  -1.9199  -1.5530  -1.3476  -1.1899
    -1.0450  -0.9888  -0.9041  -0.4032   1.0269   1.1246   1.1765   1.4625
     1.7995   1.8276   1.8728   2.0274   2.0483   2.1246

     the Fermi energy is    -0.5160 ev

!    total energy              =    -900.60323953 Ry
     Harris-Foulkes estimate   =    -900.60323953 Ry
     estimated scf accuracy    <          1.4E-10 Ry

     The total energy is the sum of the following terms:

     one-electron contribution =   -4108.91106818 Ry
     hartree contribution      =    2058.88896040 Ry
     xc contribution           =    -313.46647502 Ry
     ewald contribution        =    1462.89090695 Ry
     smearing contrib. (-TS)   =      -0.00556369 Ry

     convergence has been achieved in   9 iterations

     negative rho (up, down):  1.183E-04 0.000E+00

     Forces acting on atoms (Ry/au):

     atom    1 type  1   force =     0.00000000    0.00054289   -0.00024183
     atom    2 type  1   force =     0.00047016   -0.00027144   -0.00024183
     atom    3 type  1   force =     0.00000000    0.00000000   -0.00042412
     atom    4 type  1   force =    -0.00047016   -0.00027144   -0.00024183
     atom    5 type  2   force =     0.00043209    0.00024947    0.00054371
     atom    6 type  3   force =     0.00000000    0.00000000   -0.00085016
     atom    7 type  2   force =    -0.00043209    0.00024947    0.00054371
     atom    8 type  2   force =     0.00000000   -0.00049893    0.00054371
     atom    9 type  2   force =    -0.00069222   -0.00039966    0.00024564
     atom   10 type  2   force =     0.00000000    0.00000000   -0.00036829
     atom   11 type  2   force =     0.00069222   -0.00039966    0.00024564
     atom   12 type  2   force =     0.00000000    0.00079931    0.00024564

     Total force =     0.002414     Total SCF correction =     0.000050

     entering subroutine stress ...

     negative rho (up, down):  1.183E-04 0.000E+00
          total   stress  (Ry/bohr**3)                   (kbar)     P=   -3.22
  -0.00003241   0.00000000   0.00000000         -4.77      0.00      0.00
   0.00000000  -0.00003241   0.00000000          0.00     -4.77      0.00
   0.00000000  -0.00000000  -0.00000078          0.00     -0.00     -0.11

     bfgs converged in   9 scf cycles and   8 bfgs steps
     (criteria: energy <  1.0E-04, force <  1.0E-03)

     End of BFGS Geometry Optimization

     Final energy   =    -900.6032395347 Ry
Begin final coordinates

ATOMIC_POSITIONS (angstrom)
Mo      -0.000000000   1.913768960   3.171031844
Mo      -1.590369708   4.668370020   3.171031844
Mo       3.247742000   1.875085000   3.184645242
Mo       1.590369708   4.668370020   3.171031844
Se       1.621939549   0.936426876   4.832231588
As      -0.000000000   3.750169000   4.945386557
Se       4.873544451   0.936426876   4.832231588
Se       3.247742000   3.752399247   4.832231588
Se       1.625281996   0.938356639   1.525995717
Se      -0.000000000   3.750169000   1.489086755
Se       4.870202004   0.938356639   1.525995717
Se       3.247742000   3.748539722   1.525995717
End final coordinates

     Writing output data file mose2_as.save

     General routines

     Parallel routines

   This run was terminated on:  18:13:11  26Apr2017

   JOB DONE.