     Program PWSCF v.5.4.0 starts on 26Apr2017 at 14:12: 0

     Current dimensions of program PWSCF are:
     Max number of different atomic species (ntypx) = 10
     Max number of k-points (npk) =  40000
     Max angular momentum in pseudopotentials (lmaxx) =  3

     Subspace diagonalization in iterative solution of the eigenvalue problem:
     a serial algorithm will be used

     bravais-lattice index     =            4
     lattice parameter (alat)  =      12.2747  a.u.
     unit-cell volume          =    4931.5212 (a.u.)^3
     number of atoms/cell      =           12
     number of atomic types    =            3
     number of electrons       =       103.00
     number of Kohn-Sham states=           62
     kinetic-energy cutoff     =      70.0000  Ry
     charge density cutoff     =     700.0000  Ry
     convergence threshold     =      1.0E-08
     mixing beta               =       0.7000
     number of iterations used =            8  plain     mixing
     Exchange-correlation      = SLA  PZ   NOGX NOGC ( 1  1  0  0 0 0)
     nstep                     =           50

     celldm(1)=  12.274692  celldm(2)=   0.000000  celldm(3)=   3.079062
     celldm(4)=   0.000000  celldm(5)=   0.000000  celldm(6)=   0.000000

     crystal axes: (cart. coord. in units of alat)
               a(1) = (   1.000000   0.000000   0.000000 )
               a(2) = (  -0.500000   0.866025   0.000000 )
               a(3) = (   0.000000   0.000000   3.079062 )

     reciprocal axes: (cart. coord. in units 2 pi/alat)
               b(1) = (  1.000000  0.577350  0.000000 )
               b(2) = (  0.000000  1.154701  0.000000 )
               b(3) = (  0.000000  0.000000  0.324774 )

     PseudoPot. # 1 for Mo read from file:
     /afs/crc.nd.edu/user/j/jencomen/espresso/pseudo/Mo_LDA.UPF
     MD5 check sum: f5ddb34c5c8cdf9395e9f47ee8c17b30
     Pseudo is Ultrasoft + core correction, Zval = 14.0
     Generated by new atomic code, or converted to UPF format
     Using radial grid of  889 points,  6 beta functions with:
                l(1) =   0
                l(2) =   0
                l(3) =   1
                l(4) =   1
                l(5) =   2
                l(6) =   2
     Q(r) pseudized with  6 coefficients,  rinner =    1.000   1.000   1.000
                                                       1.000   1.000

     PseudoPot. # 2 for Se read from file:
     /afs/crc.nd.edu/user/j/jencomen/espresso/pseudo/Se_LDA.UPF
     MD5 check sum: 29da00cbf48820a058e3666752a4b224
     Pseudo is Ultrasoft + core correction, Zval =  6.0
     Generated by new atomic code, or converted to UPF format
     Using radial grid of  877 points,  6 beta functions with:
                l(1) =   0
                l(2) =   0
                l(3) =   1
                l(4) =   1
                l(5) =   2
                l(6) =   2
     Q(r) pseudized with  8 coefficients,  rinner =    1.300   1.300   1.300
                                                       1.300   1.300

     PseudoPot. # 3 for Nb read from file:
     /afs/crc.nd.edu/user/j/jencomen/espresso/pseudo/Nb_LDA.UPF
     MD5 check sum: a8e7b7b0ee98cbdca7616d96bb3e760c
     Pseudo is Ultrasoft + core correction, Zval = 13.0
     Generated by new atomic code, or converted to UPF format
     Using radial grid of  887 points,  6 beta functions with:
                l(1) =   0
                l(2) =   0
                l(3) =   1
                l(4) =   1
                l(5) =   2
                l(6) =   2
     Q(r) pseudized with  6 coefficients,  rinner =    1.000   1.000   1.000
                                                       1.000   1.000

     atomic species   valence    mass     pseudopotential
        Mo            14.00    95.95000     Mo( 1.00)
        Se             6.00    78.97100     Se( 1.00)
        Nb            13.00    92.90600     Nb( 1.00)

      6 Sym. Ops. (no inversion) found ( 4 have fractional translation)

   Cartesian axes

     site n.     atom                  positions (alat units)
         1           Nb  tau(   1) = (   0.0000000   0.2886750   0.4901723  )
         2           Mo  tau(   2) = (  -0.2499999   0.7216875   0.4901723  )
         3           Mo  tau(   3) = (   0.4999997   0.2886750   0.4901723  )
         4           Mo  tau(   4) = (   0.2499999   0.7216875   0.4901723  )
         5           Se  tau(   5) = (   0.2499999   0.1443374   0.7431011  )
         6           Se  tau(   6) = (   0.0000000   0.5773499   0.7431011  )
         7           Se  tau(   7) = (   0.7499996   0.1443374   0.7431011  )
         8           Se  tau(   8) = (   0.4999997   0.5773499   0.7431011  )
         9           Se  tau(   9) = (   0.2499999   0.1443374   0.2372435  )
        10           Se  tau(  10) = (   0.0000000   0.5773499   0.2372435  )
        11           Se  tau(  11) = (   0.7499996   0.1443374   0.2372435  )
        12           Se  tau(  12) = (   0.4999997   0.5773499   0.2372435  )

     number of k points=    14  gaussian smearing, width (Ry)=  0.0100
                       cart. coord. in units 2pi/alat
        k(    1) = (   0.0000000   0.0000000   0.0000000), wk =   0.0200000
        k(    2) = (   0.0000000   0.1154701   0.0000000), wk =   0.1200000
        k(    3) = (   0.0000000   0.2309401   0.0000000), wk =   0.1200000
        k(    4) = (   0.0000000   0.3464102   0.0000000), wk =   0.1200000
        k(    5) = (   0.0000000   0.4618802   0.0000000), wk =   0.1200000
        k(    6) = (   0.0000000  -0.5773503   0.0000000), wk =   0.0600000
        k(    7) = (   0.1000000   0.1732051   0.0000000), wk =   0.1200000
        k(    8) = (   0.1000000   0.2886751   0.0000000), wk =   0.2400000
        k(    9) = (   0.1000000   0.4041452   0.0000000), wk =   0.2400000
        k(   10) = (   0.1000000   0.5196152   0.0000000), wk =   0.2400000
        k(   11) = (   0.2000000   0.3464102   0.0000000), wk =   0.1200000
        k(   12) = (   0.2000000   0.4618802   0.0000000), wk =   0.2400000
        k(   13) = (   0.2000000   0.5773503   0.0000000), wk =   0.1200000
        k(   14) = (   0.3000000   0.5196152   0.0000000), wk =   0.1200000

     Largest allocated arrays     est. size (Mb)     dimensions
     Largest temporary arrays     est. size (Mb)     dimensions

     Initial potential from superposition of free atoms
     Check: negative starting charge=   -0.001188

     starting charge  102.99480, renormalised to  103.00000

     negative rho (up, down):  1.188E-03 0.000E+00
     Starting wfc are   84 randomized atomic wfcs

     Self-consistent Calculation

     iteration #  1     ecut=    70.00 Ry     beta=0.70
     CG style diagonalization
     ethr =  1.00E-02,  avg # of iterations =  2.6

     negative rho (up, down):  2.254E-05 0.000E+00

     total energy              =    -881.97435688 Ry
     Harris-Foulkes estimate   =    -882.89435323 Ry
     estimated scf accuracy    <       1.14852365 Ry

[...]

     iteration #  4     ecut=    70.00 Ry     beta=0.70
     CG style diagonalization
     c_bands:  1 eigenvalues not converged
     ethr =  1.29E-04,  avg # of iterations =  4.5

[...]

     End of self-consistent calculation

          k = 0.0000 0.0000 0.0000 ( 48761 PWs)   bands (ev):

   -61.1154 -61.0929 -61.0929 -54.7305 -35.4991 -35.3678 -35.3678 -35.3327
   -35.2808 -35.2807 -35.2092 -35.2025 -35.2025 -31.0002 -30.9871 -30.9871
   -14.9406 -13.8012 -13.0632 -12.9345 -12.9345 -12.8969 -12.8244 -12.8243
    -6.3861  -6.3861  -6.2831  -6.0621  -5.4306  -5.4306  -5.3228  -4.4499
    -4.3639  -4.3639  -3.3419  -3.2403  -3.2403  -2.6344  -2.6344  -2.4425
    -2.2965  -2.2965  -2.2867  -1.4651  -1.4651  -1.1449  -1.1169  -1.1169
    -1.0341  -0.9633  -0.9633  -0.5877   1.5239   1.7806   1.7806   2.3101
     2.3101   2.6717   2.6719   2.6768   3.1466   3.1828

[...]

     the Fermi energy is    -0.5906 ev

!    total energy              =    -882.71288214 Ry
     Harris-Foulkes estimate   =    -882.71288208 Ry
     estimated scf accuracy    <          6.6E-09 Ry

     The total energy is the sum of the following terms:

     one-electron contribution =   -4100.13674788 Ry
     hartree contribution      =    2055.28339047 Ry
     xc contribution           =    -311.18030079 Ry
     ewald contribution        =    1473.32559595 Ry
     smearing contrib. (-TS)   =      -0.00481989 Ry

     convergence has been achieved in  13 iterations

[...]

     Forces acting on atoms (Ry/au):

     atom    1 type  3   force =     0.00000000    0.00000000   -0.00000797
     atom    2 type  1   force =    -0.00238176   -0.00137511    0.00000650
     atom    3 type  1   force =     0.00000000    0.00275022    0.00000650
     atom    4 type  1   force =     0.00238176   -0.00137511    0.00000650
     atom    5 type  2   force =     0.01343609   -0.00775733    0.02542412
     atom    6 type  2   force =    -0.00000000    0.01551467    0.02542412
     atom    7 type  2   force =    -0.01343609   -0.00775733    0.02542412
     atom    8 type  2   force =     0.00000000    0.00000000    0.01206239
     atom    9 type  2   force =     0.01343253   -0.00775528   -0.02542697
     atom   10 type  2   force =    -0.00000000    0.01551056   -0.02542697
     atom   11 type  2   force =    -0.01343253   -0.00775528   -0.02542697
     atom   12 type  2   force =     0.00000000    0.00000000   -0.01206538

     Total force =     0.075076     Total SCF correction =     0.000205

     entering subroutine stress ...

     negative rho (up, down):  1.282E-04 0.000E+00
          total   stress  (Ry/bohr**3)                   (kbar)     P=   14.03
   0.00008791  -0.00000000   0.00000000         12.93     -0.00      0.00
  -0.00000000   0.00008791   0.00000000         -0.00     12.93      0.00
   0.00000000   0.00000000   0.00011025          0.00      0.00     16.22

     BFGS Geometry Optimization

     number of scf cycles    =   1
     number of bfgs steps    =   0

     energy   new            =    -882.7128821367 Ry

     new trust radius        =       0.0297843624 bohr
     new conv_thr            =       0.0000000100 Ry

ATOMIC_POSITIONS (angstrom)
Nb       0.000000000   1.875085000   3.183903783
Mo      -1.625131372   4.686984324   3.183911441
Mo       3.247742000   1.876540352   3.183911441
Mo       1.625131372   4.686984324   3.183911441
Se       1.630981075   0.933436996   4.840257866
Se       0.000000000   3.758379008   4.840257866
Se       4.864502925   0.933436996   4.840257866
Se       3.247742000   3.750169000   4.833187143
Se       1.630979191   0.933438084   1.527556626
Se       0.000000000   3.758376832   1.527556626
Se       4.864504809   0.933438084   1.527556626
Se       3.247742000   3.750169000   1.534627278

     Writing output data file mose2_nb.save
     Check: negative starting charge=   -0.001188
     NEW-OLD atomic charge density approx. for the potential
     Check: negative starting charge=   -0.001179

[...]

     energy   old            =    -882.7128821367 Ry
     energy   new            =    -882.7175484730 Ry

     CASE: energy  _new < energy  _old

[...]

     iteration #  1     ecut=    70.00 Ry     beta=0.70
     CG style diagonalization
     c_bands:  1 eigenvalues not converged
     c_bands:  2 eigenvalues not converged
     c_bands:  2 eigenvalues not converged
     c_bands:  2 eigenvalues not converged
     c_bands:  2 eigenvalues not converged
     c_bands:  1 eigenvalues not converged
     c_bands:  3 eigenvalues not converged
     c_bands:  4 eigenvalues not converged
     c_bands:  3 eigenvalues not converged
     c_bands:  2 eigenvalues not converged
     c_bands:  4 eigenvalues not converged
     c_bands:  2 eigenvalues not converged
     ethr =  1.00E-06,  avg # of iterations =  6.0

[...]

     Threshold (ethr) on eigenvalues was too large:
     Diagonalizing with lowered threshold

     CG style diagonalization
     c_bands:  3 eigenvalues not converged
     ethr =  1.37E-09,  avg # of iterations = 12.6

[...]

     number of scf cycles    =   8
     number of bfgs steps    =   7

     energy   old            =    -882.7213168275 Ry
     energy   new            =    -882.7213330056 Ry

     CASE: energy  _new < energy  _old

     new trust radius        =       0.0058920083 bohr
     new conv_thr            =            1.0E-10 Ry

ATOMIC_POSITIONS (angstrom)
Nb      -0.000000000   1.875085000   3.183902430
Mo      -1.618391955   4.690875328   3.183903430
Mo       3.247742000   1.868758344   3.183903430
Mo       1.618391955   4.690875328   3.183903430
Se       1.646424843   0.924520533   4.869685109
Se       0.000000000   3.776211934   4.869685109
Se       4.849059157   0.924520533   4.869685109
Se       3.247742000   3.750169000   4.838855585
Se       1.646426199   0.924519750   1.498134262
Se       0.000000000   3.776213501   1.498134262
Se       4.849057801   0.924519750   1.498134262
Se       3.247742000   3.750169000   1.528969583

     Writing output data file mose2_nb.save
     Check: negative starting charge=   -0.001172
     NEW-OLD atomic charge density approx. for the potential
     Check: negative starting charge=   -0.001171

[...]

     Self-consistent Calculation

[...]

     Threshold (ethr) on eigenvalues was too large:
     Diagonalizing with lowered threshold

     CG style diagonalization
     c_bands:  2 eigenvalues not converged
     c_bands:  3 eigenvalues not converged
     c_bands:  5 eigenvalues not converged
     c_bands:  4 eigenvalues not converged
     c_bands:  3 eigenvalues not converged
     c_bands:  4 eigenvalues not converged
     ethr =  1.94E-08,  avg # of iterations =  9.5

[...]

     total energy              =    -882.72135111 Ry
     Harris-Foulkes estimate   =    -882.72135111 Ry
     estimated scf accuracy    <          1.1E-09 Ry

     iteration # 10     ecut=    70.00 Ry     beta=0.70
     CG style diagonalization
     ethr =  1.08E-12,  avg # of iterations =  4.5

[...]

     End of self-consistent calculation

[...]

          k = 0.3000 0.5196 0.0000 ( 48786 PWs)   bands (ev):

   -61.1022 -61.0992 -61.0896 -54.7784 -35.3929 -35.3605 -35.2966 -35.2943
   -35.2901 -35.2682 -35.2535 -35.2321 -35.2206 -31.0125 -31.0107 -30.9751
   -13.9727 -13.7206 -13.5838 -13.3574 -13.2299 -13.0890 -12.6017 -12.6008
    -5.6197  -5.2180  -5.2045  -5.0434  -5.0301  -4.4185  -4.2757  -4.1589
    -4.1220  -4.0233  -4.0152  -3.7592  -3.7086  -3.5129  -3.4248  -3.4074
    -3.0448  -2.5103  -2.1595  -2.1131  -1.9538  -1.5250  -1.4487  -1.2358
    -1.2254  -1.0293  -0.8682  -0.3821   1.1336   1.1909   1.3695   1.4538
     1.9125   2.0166   2.0567   2.0924   2.1865   2.2926

     the Fermi energy is    -0.5789 ev

!    total energy              =    -882.72135111 Ry
     Harris-Foulkes estimate   =    -882.72135111 Ry
     estimated scf accuracy    <          5.9E-11 Ry

     The total energy is the sum of the following terms:

     one-electron contribution =   -4065.10286892 Ry
     hartree contribution      =    2037.79671122 Ry
     xc contribution           =    -310.94017940 Ry
     ewald contribution        =    1455.52993407 Ry
     smearing contrib. (-TS)   =      -0.00494808 Ry

     convergence has been achieved in  10 iterations

     negative rho (up, down):  1.279E-04 0.000E+00

     Forces acting on atoms (Ry/au):

     atom    1 type  3   force =     0.00000000    0.00000000    0.00000888
     atom    2 type  1   force =     0.00011862    0.00006849    0.00001038
     atom    3 type  1   force =     0.00000000   -0.00013697    0.00001038
     atom    4 type  1   force =    -0.00011862    0.00006849    0.00001038
     atom    5 type  2   force =    -0.00050602    0.00029215    0.00020092
     atom    6 type  2   force =    -0.00000000   -0.00058430    0.00020092
     atom    7 type  2   force =     0.00050602    0.00029215    0.00020092
     atom    8 type  2   force =     0.00000000    0.00000000   -0.00080028
     atom    9 type  2   force =    -0.00050642    0.00029238   -0.00021066
     atom   10 type  2   force =    -0.00000000   -0.00058476   -0.00021066
     atom   11 type  2   force =     0.00050642    0.00029238   -0.00021066
     atom   12 type  2   force =     0.00000000    0.00000000    0.00078946

     Total force =     0.001904     Total SCF correction =     0.000013

     entering subroutine stress ...

     negative rho (up, down):  1.279E-04 0.000E+00
          total   stress  (Ry/bohr**3)                   (kbar)     P=    3.39
   0.00003514   0.00000000   0.00000000          5.17      0.00      0.00
   0.00000000   0.00003514  -0.00000000          0.00      5.17     -0.00
   0.00000000   0.00000000  -0.00000118          0.00      0.00     -0.17

     bfgs converged in   9 scf cycles and   8 bfgs steps
     (criteria: energy <  1.0E-04, force <  1.0E-03)

     End of BFGS Geometry Optimization

     Final energy   =    -882.7213511070 Ry
Begin final coordinates

ATOMIC_POSITIONS (angstrom)
Nb      -0.000000000   1.875085000   3.183902430
Mo      -1.618391955   4.690875328   3.183903430
Mo       3.247742000   1.868758344   3.183903430
Mo       1.618391955   4.690875328   3.183903430
Se       1.646424843   0.924520533   4.869685109
Se       0.000000000   3.776211934   4.869685109
Se       4.849059157   0.924520533   4.869685109
Se       3.247742000   3.750169000   4.838855585
Se       1.646426199   0.924519750   1.498134262
Se       0.000000000   3.776213501   1.498134262
Se       4.849057801   0.924519750   1.498134262
Se       3.247742000   3.750169000   1.528969583
End final coordinates

     Writing output data file mose2_nb.save

     General routines

     Parallel routines

   This run was terminated on:  16:27:14  26Apr2017

   JOB DONE.