     Program PWSCF v.5.4.0 starts on 26Apr2017 at 15:48:59

     Current dimensions of program PWSCF are:
     Max number of different atomic species (ntypx) = 10
     Max number of k-points (npk) =  40000
     Max angular momentum in pseudopotentials (lmaxx) =  3

     Subspace diagonalization in iterative solution of the eigenvalue problem:
     a serial algorithm will be used

     bravais-lattice index     =            4
     lattice parameter (alat)  =      12.2747  a.u.
     unit-cell volume          =    4931.5212 (a.u.)^3
     number of atoms/cell      =           12
     number of atomic types    =            3
     number of electrons       =       105.00
     number of Kohn-Sham states=           64
     kinetic-energy cutoff     =      70.0000  Ry
     charge density cutoff     =     700.0000  Ry
     convergence threshold     =      1.0E-08
     mixing beta               =       0.7000
     number of iterations used =            8  plain     mixing
     Exchange-correlation      =  SLA  PZ   NOGX NOGC ( 1  1  0  0 0 0)
     nstep                     =           50

     celldm(1)=  12.274692  celldm(2)=   0.000000  celldm(3)=   3.079062
     celldm(4)=   0.000000  celldm(5)=   0.000000  celldm(6)=   0.000000

     crystal axes: (cart. coord. in units of alat)
               a(1) = (   1.000000   0.000000   0.000000 )
               a(2) = (  -0.500000   0.866025   0.000000 )
               a(3) = (   0.000000   0.000000   3.079062 )

     reciprocal axes: (cart. coord. in units 2 pi/alat)
               b(1) = (  1.000000  0.577350  0.000000 )
               b(2) = (  0.000000  1.154701  0.000000 )
               b(3) = (  0.000000  0.000000  0.324774 )

     PseudoPot. # 1 for Mo read from file:
     /afs/crc.nd.edu/user/j/jencomen/espresso/pseudo/Mo_LDA.UPF
     MD5 check sum: f5ddb34c5c8cdf9395e9f47ee8c17b30
     Pseudo is Ultrasoft + core correction, Zval = 14.0
     Generated by new atomic code, or converted to UPF format
     Using radial grid of  889 points,  6 beta functions with:
                l(1) =   0
                l(2) =   0
                l(3) =   1
                l(4) =   1
                l(5) =   2
                l(6) =   2
     Q(r) pseudized with  6 coefficients,  rinner =    1.000   1.000   1.000
                                                       1.000   1.000

     PseudoPot. # 2 for Se read from file:
     /afs/crc.nd.edu/user/j/jencomen/espresso/pseudo/Se_LDA.UPF
     MD5 check sum: 29da00cbf48820a058e3666752a4b224
     Pseudo is Ultrasoft + core correction, Zval =  6.0
     Generated by new atomic code, or converted to UPF format
     Using radial grid of  877 points,  6 beta functions with:
                l(1) =   0
                l(2) =   0
                l(3) =   1
                l(4) =   1
                l(5) =   2
                l(6) =   2
     Q(r) pseudized with  8 coefficients,  rinner =    1.300   1.300   1.300
                                                       1.300   1.300

     PseudoPot. # 3 for F  read from file:
     /afs/crc.nd.edu/user/j/jencomen/espresso/pseudo/F_LDA.UPF
     MD5 check sum: b55d989075ece9c6a2e5eaa43b4e1062
     Pseudo is Ultrasoft, Zval =  7.0
     Generated by new atomic code, or converted to UPF format
     Using radial grid of  799 points,  4 beta functions with:
                l(1) =   0
                l(2) =   0
                l(3) =   1
                l(4) =   1
     Q(r) pseudized with  8 coefficients,  rinner =    0.950   0.950   0.950

     atomic species   valence    mass     pseudopotential
        Mo            14.00    95.95000     Mo( 1.00)
        Se             6.00    78.97100     Se( 1.00)
        F              7.00    18.99800     F ( 1.00)

      6 Sym. Ops. (no inversion) found

   Cartesian axes

     site n.     atom                  positions (alat units)
         1           Mo  tau(   1) = (   0.0000000   0.2886750   0.4901723  )
         2           Mo  tau(   2) = (  -0.2499999   0.7216875   0.4901723  )
         3           Mo  tau(   3) = (   0.4999997   0.2886750   0.4901723  )
         4           Mo  tau(   4) = (   0.2499999   0.7216875   0.4901723  )
         5           Se  tau(   5) = (   0.2499999   0.1443374   0.7431011  )
         6           F   tau(   6) = (   0.0000000   0.5773499   0.7431011  )
         7           Se  tau(   7) = (   0.7499996   0.1443374   0.7431011  )
         8           Se  tau(   8) = (   0.4999997   0.5773499   0.7431011  )
         9           Se  tau(   9) = (   0.2499999   0.1443374   0.2372435  )
        10           Se  tau(  10) = (   0.0000000   0.5773499   0.2372435  )
        11           Se  tau(  11) = (   0.7499996   0.1443374   0.2372435  )
        12           Se  tau(  12) = (   0.4999997   0.5773499   0.2372435  )

     number of k points=    14  gaussian smearing, width (Ry)=  0.0100
                       cart. coord. in units 2pi/alat
        k(    1) = (   0.0000000   0.0000000   0.0000000), wk =   0.0200000
        k(    2) = (   0.0000000   0.1154701   0.0000000), wk =   0.1200000
        k(    3) = (   0.0000000   0.2309401   0.0000000), wk =   0.1200000
        k(    4) = (   0.0000000   0.3464102   0.0000000), wk =   0.1200000
        k(    5) = (   0.0000000   0.4618802   0.0000000), wk =   0.1200000
        k(    6) = (   0.0000000  -0.5773503   0.0000000), wk =   0.0600000
        k(    7) = (   0.1000000   0.1732051   0.0000000), wk =   0.1200000
        k(    8) = (   0.1000000   0.2886751   0.0000000), wk =   0.2400000
        k(    9) = (   0.1000000   0.4041452   0.0000000), wk =   0.2400000
        k(   10) = (   0.1000000   0.5196152   0.0000000), wk =   0.2400000
        k(   11) = (   0.2000000   0.3464102   0.0000000), wk =   0.1200000
        k(   12) = (   0.2000000   0.4618802   0.0000000), wk =   0.2400000
        k(   13) = (   0.2000000   0.5773503   0.0000000), wk =   0.1200000
        k(   14) = (   0.3000000   0.5196152   0.0000000), wk =   0.1200000

     Largest allocated arrays     est. size (Mb)     dimensions
     Largest temporary arrays     est. size (Mb)     dimensions

     Initial potential from superposition of free atoms
     Check: negative starting charge=   -0.000798

     starting charge  104.99617, renormalised to  105.00000

     negative rho (up, down):  7.983E-04 0.000E+00
     Starting wfc are   84 randomized atomic wfcs

     Self-consistent Calculation

     iteration #  1     ecut=    70.00 Ry     beta=0.70
     CG style diagonalization
     ethr =  1.00E-02,  avg # of iterations =  2.6

     Threshold (ethr) on eigenvalues was too large:
     Diagonalizing with lowered threshold

     CG style diagonalization
     ethr =  8.89E-04,  avg # of iterations =  2.0

     negative rho (up, down):  2.114E-04 0.000E+00

     total energy              =    -908.78334212 Ry
     Harris-Foulkes estimate   =    -909.50448881 Ry
     estimated scf accuracy    <       0.91211873 Ry

[...]

     iteration #  8     ecut=    70.00 Ry     beta=0.70
     CG style diagonalization
     c_bands:  1 eigenvalues not converged
     c_bands:  1 eigenvalues not converged
     ethr =  3.26E-06,  avg # of iterations =  3.7

[...]

     End of self-consistent calculation

          k = 0.0000 0.0000 0.0000 ( 48761 PWs)   bands (ev):

   -61.4748 -61.4498 -61.4498 -61.4234 -35.8194 -35.8194 -35.7275 -35.6917
   -35.6399 -35.6399 -35.6226 -35.6053 -35.5392 -35.5392 -35.4558 -35.4558
   -22.8127 -15.1179 -13.9979 -13.4053 -13.4053 -13.2603 -13.1577 -13.1576
    -6.7581  -6.5347  -6.5346  -6.3788  -5.8414  -5.6768  -5.6768  -5.2073
    -4.7799  -4.7798  -4.1879  -4.1879  -3.7297  -3.6202  -3.2092  -3.2092
    -2.7735  -2.7735  -2.7549  -2.4248  -2.4248  -1.7388  -1.7388  -1.7342
    -1.4055  -1.4054  -1.3017  -1.0989   0.8570   0.8571   0.9946   1.3037
     1.3699   1.3699   1.8014   1.8447   1.8447   2.4208   2.4210   3.0423

[...]

     the Fermi energy is     0.2185 ev

!    total energy              =    -909.31534739 Ry
     Harris-Foulkes estimate   =    -909.31534740 Ry
     estimated scf accuracy    <          4.0E-09 Ry

     The total energy is the sum of the following terms:

     one-electron contribution =   -4308.03438627 Ry
     hartree contribution      =    2159.06576052 Ry
     xc contribution           =    -291.25583784 Ry
     ewald contribution        =    1530.91381163 Ry
     smearing contrib. (-TS)   =      -0.00469544 Ry

     convergence has been achieved in  14 iterations

[...]

     Forces acting on atoms (Ry/au):

     atom    1 type  1   force =     0.00000000    0.03892673    0.01340586
     atom    2 type  1   force =     0.03371154   -0.01946336    0.01340586
     atom    3 type  1   force =     0.00000000    0.00000000    0.00223911
     atom    4 type  1   force =    -0.03371154   -0.01946336    0.01340586
     atom    5 type  2   force =    -0.00035903   -0.00020729    0.00914889
     atom    6 type  3   force =     0.00000000    0.00000000   -0.06972614
     atom    7 type  2   force =     0.00035903   -0.00020729    0.00914889
     atom    8 type  2   force =    -0.00000000    0.00041457    0.00914889
     atom    9 type  2   force =    -0.01484260   -0.00856938   -0.00247599
     atom   10 type  2   force =     0.00000000    0.00000000    0.00725072
     atom   11 type  2   force =     0.01484260   -0.00856938   -0.00247599
     atom   12 type  2   force =     0.00000000    0.01713876   -0.00247599

     Total force =     0.105620     Total SCF correction =     0.000344

     entering subroutine stress ...

     negative rho (up, down):  1.234E-04 0.000E+00
          total   stress  (Ry/bohr**3)                   (kbar)     P=   -9.57
  -0.00008379   0.00000000  -0.00000000        -12.33      0.00     -0.00
   0.00000000  -0.00008379  -0.00000000          0.00    -12.33     -0.00
  -0.00000000  -0.00000000  -0.00002758         -0.00     -0.00     -4.06

     BFGS Geometry Optimization

     number of scf cycles    =   1
     number of bfgs steps    =   0

     energy   new            =    -909.3153473930 Ry

     new trust radius        =       0.0697261429 bohr
     new conv_thr            =       0.0000000100 Ry

ATOMIC_POSITIONS (angstrom)
Mo       0.000000000   1.895684137   3.191002077
Mo      -1.606031624   4.677412431   3.191002077
Mo       3.247742000   1.875085000   3.185092887
Mo       1.606031624   4.677412431   3.191002077
Se       1.623681010   0.937432309   4.831645386
F        0.000000000   3.750169000   4.789906514
Se       4.871802990   0.937432309   4.831645386
Se       3.247742000   3.750388382   4.831645386
Se       1.616016634   0.933007280   1.539701765
Se       0.000000000   3.750169000   1.544848917
Se       4.879467366   0.933007280   1.539701765
Se       3.247742000   3.759238441   1.539701765

     Writing output data file mose2_f.save
     Check: negative starting charge=   -0.000798
     NEW-OLD atomic charge density approx. for the potential
     Check: negative starting charge=   -0.000788

[...]

     energy   old            =    -909.3153473930 Ry
     energy   new            =    -909.3252132922 Ry

     CASE: energy  _new < energy  _old

[...]

     iteration #  1     ecut=    70.00 Ry     beta=0.70
     CG style diagonalization
     c_bands:  1 eigenvalues not converged
     c_bands:  1 eigenvalues not converged
     c_bands:  2 eigenvalues not converged
     c_bands:  2 eigenvalues not converged
     c_bands:  2 eigenvalues not converged
     c_bands:  1 eigenvalues not converged
     c_bands:  2 eigenvalues not converged
     c_bands:  4 eigenvalues not converged
     c_bands:  5 eigenvalues not converged
     c_bands:  2 eigenvalues not converged
     c_bands:  3 eigenvalues not converged
     c_bands:  3 eigenvalues not converged
     ethr =  1.00E-06,  avg # of iterations =  8.5

[...]

     CG style diagonalization
     c_bands:  5 eigenvalues not converged
     c_bands:  4 eigenvalues not converged
     ethr =  2.37E-08,  avg # of iterations = 12.6

[...]

     number of scf cycles    =  11
     number of bfgs steps    =  10

     energy   old            =    -909.3487917284 Ry
     energy   new            =    -909.3488156803 Ry

     CASE: energy  _new < energy  _old

     new trust radius        =       0.0028826416 bohr
     new conv_thr            =            1.0E-10 Ry

ATOMIC_POSITIONS (angstrom)
Mo      -0.000000000   1.965416789   3.206270606
Mo      -1.545641376   4.642546105   3.206270606
Mo       3.247742000   1.875085000   3.200568950
Mo       1.545641376   4.642546105   3.206270606
Se       1.625927633   0.938729397   4.858263086
F       -0.000000000   3.750169000   4.565915673
Se       4.869556367   0.938729397   4.858263086
Se       3.247742000   3.747794205   4.858263086
Se       1.582051193   0.913397323   1.591390985
Se      -0.000000000   3.750169000   1.472637345
Se       4.913432807   0.913397323   1.591390985
Se       3.247742000   3.798458353   1.591390985

     Writing output data file mose2_f.save
     Check: negative starting charge=   -0.000803
     NEW-OLD atomic charge density approx. for the potential
     Check: negative starting charge=   -0.000805

[...]

     Self-consistent Calculation

[...]

     Threshold (ethr) on eigenvalues was too large:
     Diagonalizing with lowered threshold

     CG style diagonalization
     c_bands:  2 eigenvalues not converged
     c_bands:  3 eigenvalues not converged
     c_bands:  2 eigenvalues not converged
     ethr =  4.16E-09,  avg # of iterations = 12.5

[...]

     total energy              =    -909.34882377 Ry
     Harris-Foulkes estimate   =    -909.34882377 Ry
     estimated scf accuracy    <          3.4E-10 Ry

     iteration # 10     ecut=    70.00 Ry     beta=0.70
     CG style diagonalization
     ethr =  3.28E-13,  avg # of iterations =  5.1

[...]

     End of self-consistent calculation

[...]

          k = 0.3000 0.5196 0.0000 ( 48786 PWs)   bands (ev):

   -61.4270 -61.4124 -61.4073 -61.3646 -35.7288 -35.6669 -35.6562 -35.6392
   -35.6236 -35.6153 -35.6038 -35.5545 -35.5492 -35.4958 -35.4730 -35.4451
   -24.4473 -14.2786 -14.0508 -13.8783 -13.5496 -13.4112 -13.0788 -12.9812
    -7.0631  -6.9835  -6.9306  -5.7042  -5.4461  -5.3957  -5.1960  -5.1126
    -4.6521  -4.5821  -4.4663  -4.3508  -4.2261  -3.9136  -3.8796  -3.6259
    -3.5946  -3.1359  -3.1087  -2.5426  -2.4663  -2.0899  -2.0684  -1.7162
    -1.6631  -1.5514  -1.4641  -0.7276   0.3712   0.5317   0.7231   0.9502
     1.2597   1.3637   1.5931   1.6463   1.6966   1.7882   2.0333   2.3442

     the Fermi energy is     0.4938 ev

!    total energy              =    -909.34882377 Ry
     Harris-Foulkes estimate   =    -909.34882377 Ry
     estimated scf accuracy    <          6.7E-11 Ry

     The total energy is the sum of the following terms:

     one-electron contribution =   -4348.37089603 Ry
     hartree contribution      =    2179.06313076 Ry
     xc contribution           =    -291.30528466 Ry
     ewald contribution        =    1551.26820591 Ry
     smearing contrib. (-TS)   =      -0.00397974 Ry

     convergence has been achieved in  10 iterations

     negative rho (up, down):  1.227E-04 0.000E+00

     Forces acting on atoms (Ry/au):

     atom    1 type  1   force =     0.00000000    0.00053717   -0.00015335
     atom    2 type  1   force =     0.00046521   -0.00026859   -0.00015335
     atom    3 type  1   force =     0.00000000    0.00000000   -0.00003881
     atom    4 type  1   force =    -0.00046521   -0.00026859   -0.00015335
     atom    5 type  2   force =    -0.00022318   -0.00012885   -0.00004967
     atom    6 type  3   force =     0.00000000   -0.00000000    0.00056145
     atom    7 type  2   force =     0.00022318   -0.00012885   -0.00004967
     atom    8 type  2   force =     0.00000000    0.00025770   -0.00004967
     atom    9 type  2   force =    -0.00050152   -0.00028955    0.00005913
     atom   10 type  2   force =     0.00000000    0.00000000   -0.00009099
     atom   11 type  2   force =     0.00050152   -0.00028955    0.00005913
     atom   12 type  2   force =     0.00000000    0.00057910    0.00005913

     Total force =     0.001576     Total SCF correction =     0.000034

     entering subroutine stress ...

     negative rho (up, down):  1.227E-04 0.000E+00
          total   stress  (Ry/bohr**3)                   (kbar)     P=   -9.08
  -0.00009220   0.00000000   0.00000000        -13.56      0.00      0.00
   0.00000000  -0.00009220   0.00000000          0.00    -13.56      0.00
   0.00000000   0.00000000  -0.00000085          0.00      0.00     -0.13

     bfgs converged in  12 scf cycles and  11 bfgs steps
     (criteria: energy <  1.0E-04, force <  1.0E-03)

     End of BFGS Geometry Optimization

     Final energy   =    -909.3488237667 Ry
Begin final coordinates

ATOMIC_POSITIONS (angstrom)
Mo      -0.000000000   1.965416789   3.206270606
Mo      -1.545641376   4.642546105   3.206270606
Mo       3.247742000   1.875085000   3.200568950
Mo       1.545641376   4.642546105   3.206270606
Se       1.625927633   0.938729397   4.858263086
F       -0.000000000   3.750169000   4.565915673
Se       4.869556367   0.938729397   4.858263086
Se       3.247742000   3.747794205   4.858263086
Se       1.582051193   0.913397323   1.591390985
Se      -0.000000000   3.750169000   1.472637345
Se       4.913432807   0.913397323   1.591390985
Se       3.247742000   3.798458353   1.591390985
End final coordinates

     Writing output data file mose2_f.save

     General routines

     Parallel routines

   This run was terminated on:  18:57:14  26Apr2017

   JOB DONE.