     Program PWSCF v.5.4.0 starts on 26Apr2017 at 15:19:27

     Current dimensions of program PWSCF are:
     Max number of different atomic species (ntypx) = 10
     Max number of k-points (npk) =  40000
     Max angular momentum in pseudopotentials (lmaxx) =  3

     Subspace diagonalization in iterative solution of the eigenvalue problem:
     a serial algorithm will be used

     bravais-lattice index     =            4
     lattice parameter (alat)  =       6.1373  a.u.
     unit-cell volume          =    1232.8803 (a.u.)^3
     number of atoms/cell      =            3
     number of atomic types    =            2
     number of electrons       =        26.00
     number of Kohn-Sham states=           13
     kinetic-energy cutoff     =      70.0000  Ry
     charge density cutoff     =     700.0000  Ry
     convergence threshold     =      1.0E-08
     mixing beta               =       0.7000
     number of iterations used =            8  plain     mixing
     Exchange-correlation      = SLA  PZ   NOGX NOGC ( 1  1  0  0 0 0)
     nstep                     =           50

     celldm(1)=   6.137346  celldm(2)=   0.000000  celldm(3)=   6.158124
     celldm(4)=   0.000000  celldm(5)=   0.000000  celldm(6)=   0.000000

     crystal axes: (cart. coord. in units of alat)
               a(1) = (   1.000000   0.000000   0.000000 )
               a(2) = (  -0.500000   0.866025   0.000000 )
               a(3) = (   0.000000   0.000000   6.158124 )

     reciprocal axes: (cart. coord. in units 2 pi/alat)
               b(1) = (  1.000000  0.577350  0.000000 )
               b(2) = (  0.000000  1.154701  0.000000 )
               b(3) = (  0.000000  0.000000  0.162387 )

     PseudoPot. # 1 for Mo read from file:
     /afs/crc.nd.edu/user/j/jencomen/espresso/pseudo/Mo_LDA.UPF
     MD5 check sum: f5ddb34c5c8cdf9395e9f47ee8c17b30
     Pseudo is Ultrasoft + core correction, Zval = 14.0
     Generated by new atomic code, or converted to UPF format
     Using radial grid of  889 points,  6 beta functions with:
                l(1) =   0
                l(2) =   0
                l(3) =   1
                l(4) =   1
                l(5) =   2
                l(6) =   2
     Q(r) pseudized with  6 coefficients,  rinner =    1.000   1.000   1.000
                                                       1.000   1.000

     PseudoPot. # 2 for Se read from file:
     /afs/crc.nd.edu/user/j/jencomen/espresso/pseudo/Se_LDA.UPF
     MD5 check sum: 29da00cbf48820a058e3666752a4b224
     Pseudo is Ultrasoft + core correction, Zval =  6.0
     Generated by new atomic code, or converted to UPF format
     Using radial grid of  877 points,  6 beta functions with:
                l(1) =   0
                l(2) =   0
                l(3) =   1
                l(4) =   1
                l(5) =   2
                l(6) =   2
     Q(r) pseudized with  8 coefficients,  rinner =    1.300   1.300   1.300
                                                       1.300   1.300

     atomic species   valence    mass     pseudopotential
        Mo            14.00    95.95000     Mo( 1.00)
        Se             6.00    78.97100     Se( 1.00)

      6 Sym. Ops. (no inversion) found

   Cartesian axes

     site n.     atom                  positions (alat units)
         1           Mo  tau(   1) = (   0.0000000   0.5773500   0.9803446  )
         2           Se  tau(   2) = (   0.4999997   0.2886749   1.4862022  )
         3           Se  tau(   3) = (   0.4999997   0.2886749   0.4744869  )

     number of k points=    14
                       cart. coord. in units 2pi/alat
        k(    1) = (   0.0000000   0.0000000   0.0000000), wk =   0.0200000
        k(    2) = (   0.0000000   0.1154701   0.0000000), wk =   0.1200000
        k(    3) = (   0.0000000   0.2309401   0.0000000), wk =   0.1200000
        k(    4) = (   0.0000000   0.3464102   0.0000000), wk =   0.1200000
        k(    5) = (   0.0000000   0.4618802   0.0000000), wk =   0.1200000
        k(    6) = (   0.0000000  -0.5773503   0.0000000), wk =   0.0600000
        k(    7) = (   0.1000000   0.1732051   0.0000000), wk =   0.1200000
        k(    8) = (   0.1000000   0.2886751   0.0000000), wk =   0.2400000
        k(    9) = (   0.1000000   0.4041452   0.0000000), wk =   0.2400000
        k(   10) = (   0.1000000   0.5196152   0.0000000), wk =   0.2400000
        k(   11) = (   0.2000000   0.3464102   0.0000000), wk =   0.1200000
        k(   12) = (   0.2000000   0.4618802   0.0000000), wk =   0.2400000
        k(   13) = (   0.2000000   0.5773503   0.0000000), wk =   0.1200000
        k(   14) = (   0.3000000   0.5196152   0.0000000), wk =   0.1200000

     Largest allocated arrays     est. size (Mb)     dimensions
     Largest temporary arrays     est. size (Mb)     dimensions

     Initial potential from superposition of free atoms
     Check: negative starting charge=   -0.000199

     starting charge   25.99903, renormalised to   26.00000

     negative rho (up, down):  1.986E-04 0.000E+00
     Starting wfc are   21 randomized atomic wfcs

     Self-consistent Calculation

     iteration #  1     ecut=    70.00 Ry     beta=0.70
     CG style diagonalization
     ethr =  1.00E-02,  avg # of iterations =  2.5

     negative rho (up, down):  1.088E-06 0.000E+00

     total energy              =    -225.85319101 Ry
     Harris-Foulkes estimate   =    -226.06381293 Ry
     estimated scf accuracy    <       0.26128707 Ry

[...]

     End of self-consistent calculation

          k = 0.0000 0.0000 0.0000 ( 12191 PWs)   bands (ev):

   -61.0549 -35.3127 -35.0759 -35.0759 -14.9596 -13.8467  -6.0966  -2.6838
    -2.6838  -2.3814  -1.6138  -1.6138  -0.7785

[...]

     highest occupied level (ev):    -0.5650

!    total energy              =    -226.02720594 Ry
     Harris-Foulkes estimate   =    -226.02720594 Ry
     estimated scf accuracy    <          4.8E-09 Ry

     The total energy is the sum of the following terms:

     one-electron contribution =   -1050.44124635 Ry
     hartree contribution      =     526.43872834 Ry
     xc contribution           =     -77.97010944 Ry
     ewald contribution        =     375.94542152 Ry

     convergence has been achieved in  20 iterations

[...]

     Forces acting on atoms (Ry/au):

     atom    1 type  1   force =     0.00000000   -0.00000000   -0.00000152
     atom    2 type  2   force =     0.00000000    0.00000000    0.00870060
     atom    3 type  2   force =     0.00000000    0.00000000   -0.00869908

     Total force =     0.012303     Total SCF correction =     0.000233

     entering subroutine stress ...

     negative rho (up, down):  3.286E-05 0.000E+00
          total   stress  (Ry/bohr**3)                   (kbar)     P=    2.89
   0.00000839   0.00000000   0.00000000          1.23      0.00      0.00
   0.00000000   0.00000839   0.00000000          0.00      1.23      0.00
   0.00000000   0.00000000   0.00004214          0.00      0.00      6.20

     BFGS Geometry Optimization

     number of scf cycles    =   1
     number of bfgs steps    =   0

     energy   new            =    -226.0272059378 Ry

     new trust radius        =       0.0087005967 bohr
     new conv_thr            =       0.0000000100 Ry

ATOMIC_POSITIONS (angstrom)
Mo       0.000000000   1.875085000   3.183907198
Se       1.623871000   0.937542000   4.831408157
Se       1.623871000   0.937542000   1.536408644

     Writing output data file mose2_0.save
     Check: negative starting charge=   -0.000199
     NEW-OLD atomic charge density approx. for the potential
     Check: negative starting charge=   -0.000199

[...]

     Threshold (ethr) on eigenvalues was too large:
     Diagonalizing with lowered threshold

     CG style diagonalization
     ethr =  1.10E-08,  avg # of iterations =  5.6

[...]

     energy   old            =    -226.0272059378 Ry
     energy   new            =    -226.0273288752 Ry

     CASE: energy  _new < energy  _old

[...]

     CG style diagonalization
     ethr =  3.10E-08,  avg # of iterations =  4.3

[...]

     Total force =     0.002792     Total SCF correction =     0.000013

[...]

     number of scf cycles    =   3
     number of bfgs steps    =   2

     energy   old            =    -226.0273288752 Ry
     energy   new            =    -226.0274002818 Ry

     CASE: energy  _new < energy  _old

     new trust radius        =       0.0054427974 bohr
     new conv_thr            =            1.0E-10 Ry

ATOMIC_POSITIONS (angstrom)
Mo       0.000000000   1.875085000   3.183910305
Se       1.623871000   0.937542000   4.839334061
Se       1.623871000   0.937542000   1.528479634

     Writing output data file mose2_0.save
     Check: negative starting charge=   -0.000199
     NEW-OLD atomic charge density approx. for the potential
     Check: negative starting charge=   -0.000199

[...]

     Self-consistent Calculation

[...]

     Threshold (ethr) on eigenvalues was too large:
     Diagonalizing with lowered threshold

     CG style diagonalization
     c_bands:  1 eigenvalues not converged
     ethr =  4.06E-09,  avg # of iterations =  6.0

[...]

     total energy              =    -226.02741179 Ry
     Harris-Foulkes estimate   =    -226.02741179 Ry
     estimated scf accuracy    <          2.3E-10 Ry

     iteration # 11     ecut=    70.00 Ry     beta=0.70
     CG style diagonalization
     ethr =  4.98E-13,  avg # of iterations =  3.5

[...]

     End of self-consistent calculation

[...]

          k = 0.3000 0.5196 0.0000 ( 12200 PWs)   bands (ev):

   -61.0168 -35.3106 -35.2411 -35.2291 -12.7350 -12.6715  -5.6456  -5.3614
    -4.2779  -3.8179  -3.5414  -2.4996  -0.5404

     highest occupied level (ev):    -0.5404

!    total energy              =    -226.02741179 Ry
     Harris-Foulkes estimate   =    -226.02741179 Ry
     estimated scf accuracy    <          7.9E-11 Ry

     The total energy is the sum of the following terms:

     one-electron contribution =   -1047.26805750 Ry
     hartree contribution      =     524.86305150 Ry
     xc contribution           =     -77.94853989 Ry
     ewald contribution        =     374.32613411 Ry

     convergence has been achieved in  11 iterations

     negative rho (up, down):  3.262E-05 0.000E+00

     Forces acting on atoms (Ry/au):

     atom    1 type  1   force =     0.00000000    0.00000000   -0.00000465
     atom    2 type  2   force =     0.00000000   -0.00000000    0.00001754
     atom    3 type  2   force =     0.00000000    0.00000000   -0.00001289

     Total force =     0.000022     Total SCF correction =     0.000022
     SCF correction compared to forces is large: reduce conv_thr to get better values

     entering subroutine stress ...

     negative rho (up, down):  3.262E-05 0.000E+00
          total   stress  (Ry/bohr**3)                   (kbar)     P=   -0.76
  -0.00000720   0.00000000   0.00000000         -1.06      0.00      0.00
   0.00000000  -0.00000720   0.00000000          0.00     -1.06      0.00
  -0.00000000  -0.00000000  -0.00000102         -0.00     -0.00     -0.15

     bfgs converged in   4 scf cycles and   3 bfgs steps
     (criteria: energy <  1.0E-04, force <  1.0E-03)

     End of BFGS Geometry Optimization

     Final energy   =    -226.0274117939 Ry
Begin final coordinates

ATOMIC_POSITIONS (angstrom)
Mo       0.000000000   1.875085000   3.183910305
Se       1.623871000   0.937542000   4.839334061
Se       1.623871000   0.937542000   1.528479634
End final coordinates

     Writing output data file mose2_0.save

     General routines

     Parallel routines

   This run was terminated on:  15:20:40  26Apr2017

   JOB DONE.